    1C
    1UUSER                                                              
    1UDATE              12.october.2022                                 
    1UTIME              17:44:03                                        
    1UHOST                                                              
    1UPGM               CalculiX                                        
    1UVERSION           Version 2.16                             
    1UCOMPILETIME       Mon, Jan 20, 2020 12:54:24 AM                    
    1UDIR                                                               
    1UDBN                                                               
    1UMAT    1S420                                                      
    2C                           682                                     1
 -1       280 0.00000E+00 5.90000E-01 2.93250E-01
 -1       282 0.00000E+00 5.90000E-01 3.06750E-01
 -1       283 3.00000E+00 5.90000E-01 2.93250E-01
 -1       285 3.00000E+00 5.90000E-01 3.06750E-01
 -1       286 3.00000E+00 5.00000E-01 2.93250E-01
 -1       288 3.00000E+00 5.00000E-01 3.06750E-01
 -1       289 3.00000E+00 4.95700E-01 3.00000E-01
 -1       291 3.00000E+00 5.04300E-01 3.00000E-01
 -1       300 0.00000E+00 5.00000E-01 2.93250E-01
 -1       302 0.00000E+00 5.00000E-01 3.06750E-01
 -1       303 0.00000E+00 4.95700E-01 3.00000E-01
 -1       305 0.00000E+00 5.04300E-01 3.00000E-01
 -1       314 3.00000E+00 4.10000E-01 2.93250E-01
 -1       316 3.00000E+00 4.10000E-01 3.06750E-01
 -1       317 0.00000E+00 4.10000E-01 2.93250E-01
 -1       319 0.00000E+00 4.10000E-01 3.06750E-01
 -1       320 0.00000E+00 4.95700E-01 7.00000E-01
 -1       322 0.00000E+00 5.04300E-01 7.00000E-01
 -1       323 0.00000E+00 5.00000E-01 7.06750E-01
 -1       325 0.00000E+00 5.00000E-01 6.93250E-01
 -1       334 3.00000E+00 4.95700E-01 7.00000E-01
 -1       336 3.00000E+00 5.04300E-01 7.00000E-01
 -1       337 3.00000E+00 5.00000E-01 7.06750E-01
 -1       339 3.00000E+00 5.00000E-01 6.93250E-01
 -1       348 0.00000E+00 4.10000E-01 7.06750E-01
 -1       350 0.00000E+00 4.10000E-01 6.93250E-01
 -1       351 3.00000E+00 4.10000E-01 7.06750E-01
 -1       353 3.00000E+00 4.10000E-01 6.93250E-01
 -1       354 3.00000E+00 5.90000E-01 7.06750E-01
 -1       356 3.00000E+00 5.90000E-01 6.93250E-01
 -1       357 0.00000E+00 5.90000E-01 7.06750E-01
 -1       359 0.00000E+00 5.90000E-01 6.93250E-01
 -1       360 1.00000E-01 5.90000E-01 2.93250E-01
 -1       362 1.00000E-01 5.90000E-01 3.06750E-01
 -1       363 2.00000E-01 5.90000E-01 2.93250E-01
 -1       365 2.00000E-01 5.90000E-01 3.06750E-01
 -1       366 3.00000E-01 5.90000E-01 2.93250E-01
 -1       368 3.00000E-01 5.90000E-01 3.06750E-01
 -1       369 4.00000E-01 5.90000E-01 2.93250E-01
 -1       371 4.00000E-01 5.90000E-01 3.06750E-01
 -1       372 5.00000E-01 5.90000E-01 2.93250E-01
 -1       374 5.00000E-01 5.90000E-01 3.06750E-01
 -1       375 6.00000E-01 5.90000E-01 2.93250E-01
 -1       377 6.00000E-01 5.90000E-01 3.06750E-01
 -1       378 7.00000E-01 5.90000E-01 2.93250E-01
 -1       380 7.00000E-01 5.90000E-01 3.06750E-01
 -1       381 8.00000E-01 5.90000E-01 2.93250E-01
 -1       383 8.00000E-01 5.90000E-01 3.06750E-01
 -1       384 9.00000E-01 5.90000E-01 2.93250E-01
 -1       386 9.00000E-01 5.90000E-01 3.06750E-01
 -1       387 1.00000E+00 5.90000E-01 2.93250E-01
 -1       389 1.00000E+00 5.90000E-01 3.06750E-01
 -1       390 1.10000E+00 5.90000E-01 2.93250E-01
 -1       392 1.10000E+00 5.90000E-01 3.06750E-01
 -1       393 1.20000E+00 5.90000E-01 2.93250E-01
 -1       395 1.20000E+00 5.90000E-01 3.06750E-01
 -1       396 1.30000E+00 5.90000E-01 2.93250E-01
 -1       398 1.30000E+00 5.90000E-01 3.06750E-01
 -1       399 1.40000E+00 5.90000E-01 2.93250E-01
 -1       401 1.40000E+00 5.90000E-01 3.06750E-01
 -1       402 1.50000E+00 5.90000E-01 2.93250E-01
 -1       404 1.50000E+00 5.90000E-01 3.06750E-01
 -1       405 1.60000E+00 5.90000E-01 2.93250E-01
 -1       407 1.60000E+00 5.90000E-01 3.06750E-01
 -1       408 1.70000E+00 5.90000E-01 2.93250E-01
 -1       410 1.70000E+00 5.90000E-01 3.06750E-01
 -1       411 1.80000E+00 5.90000E-01 2.93250E-01
 -1       413 1.80000E+00 5.90000E-01 3.06750E-01
 -1       414 1.90000E+00 5.90000E-01 2.93250E-01
 -1       416 1.90000E+00 5.90000E-01 3.06750E-01
 -1       417 2.00000E+00 5.90000E-01 2.93250E-01
 -1       419 2.00000E+00 5.90000E-01 3.06750E-01
 -1       420 2.10000E+00 5.90000E-01 2.93250E-01
 -1       422 2.10000E+00 5.90000E-01 3.06750E-01
 -1       423 2.20000E+00 5.90000E-01 2.93250E-01
 -1       425 2.20000E+00 5.90000E-01 3.06750E-01
 -1       426 2.30000E+00 5.90000E-01 2.93250E-01
 -1       428 2.30000E+00 5.90000E-01 3.06750E-01
 -1       429 2.40000E+00 5.90000E-01 2.93250E-01
 -1       431 2.40000E+00 5.90000E-01 3.06750E-01
 -1       432 2.50000E+00 5.90000E-01 2.93250E-01
 -1       434 2.50000E+00 5.90000E-01 3.06750E-01
 -1       435 2.60000E+00 5.90000E-01 2.93250E-01
 -1       437 2.60000E+00 5.90000E-01 3.06750E-01
 -1       438 2.70000E+00 5.90000E-01 2.93250E-01
 -1       440 2.70000E+00 5.90000E-01 3.06750E-01
 -1       441 2.80000E+00 5.90000E-01 2.93250E-01
 -1       443 2.80000E+00 5.90000E-01 3.06750E-01
 -1       444 2.90000E+00 5.90000E-01 2.93250E-01
 -1       446 2.90000E+00 5.90000E-01 3.06750E-01
 -1       447 1.00000E-01 5.00000E-01 2.93250E-01
 -1       449 1.00000E-01 5.00000E-01 3.06750E-01
 -1       450 1.00000E-01 4.95700E-01 3.00000E-01
 -1       452 1.00000E-01 5.04300E-01 3.00000E-01
 -1       461 2.00000E-01 5.00000E-01 2.93250E-01
 -1       463 2.00000E-01 5.00000E-01 3.06750E-01
 -1       464 2.00000E-01 4.95700E-01 3.00000E-01
 -1       466 2.00000E-01 5.04300E-01 3.00000E-01
 -1       475 3.00000E-01 5.00000E-01 2.93250E-01
 -1       477 3.00000E-01 5.00000E-01 3.06750E-01
 -1       478 3.00000E-01 4.95700E-01 3.00000E-01
 -1       480 3.00000E-01 5.04300E-01 3.00000E-01
 -1       489 4.00000E-01 5.00000E-01 2.93250E-01
 -1       491 4.00000E-01 5.00000E-01 3.06750E-01
 -1       492 4.00000E-01 4.95700E-01 3.00000E-01
 -1       494 4.00000E-01 5.04300E-01 3.00000E-01
 -1       503 5.00000E-01 5.00000E-01 2.93250E-01
 -1       505 5.00000E-01 5.00000E-01 3.06750E-01
 -1       506 5.00000E-01 4.95700E-01 3.00000E-01
 -1       508 5.00000E-01 5.04300E-01 3.00000E-01
 -1       517 6.00000E-01 5.00000E-01 2.93250E-01
 -1       519 6.00000E-01 5.00000E-01 3.06750E-01
 -1       520 6.00000E-01 4.95700E-01 3.00000E-01
 -1       522 6.00000E-01 5.04300E-01 3.00000E-01
 -1       531 7.00000E-01 5.00000E-01 2.93250E-01
 -1       533 7.00000E-01 5.00000E-01 3.06750E-01
 -1       534 7.00000E-01 4.95700E-01 3.00000E-01
 -1       536 7.00000E-01 5.04300E-01 3.00000E-01
 -1       545 8.00000E-01 5.00000E-01 2.93250E-01
 -1       547 8.00000E-01 5.00000E-01 3.06750E-01
 -1       548 8.00000E-01 4.95700E-01 3.00000E-01
 -1       550 8.00000E-01 5.04300E-01 3.00000E-01
 -1       559 9.00000E-01 5.00000E-01 2.93250E-01
 -1       561 9.00000E-01 5.00000E-01 3.06750E-01
 -1       562 9.00000E-01 4.95700E-01 3.00000E-01
 -1       564 9.00000E-01 5.04300E-01 3.00000E-01
 -1       573 1.00000E+00 5.00000E-01 2.93250E-01
 -1       575 1.00000E+00 5.00000E-01 3.06750E-01
 -1       576 1.00000E+00 4.95700E-01 3.00000E-01
 -1       578 1.00000E+00 5.04300E-01 3.00000E-01
 -1       587 1.10000E+00 5.00000E-01 2.93250E-01
 -1       589 1.10000E+00 5.00000E-01 3.06750E-01
 -1       590 1.10000E+00 4.95700E-01 3.00000E-01
 -1       592 1.10000E+00 5.04300E-01 3.00000E-01
 -1       601 1.20000E+00 5.00000E-01 2.93250E-01
 -1       603 1.20000E+00 5.00000E-01 3.06750E-01
 -1       604 1.20000E+00 4.95700E-01 3.00000E-01
 -1       606 1.20000E+00 5.04300E-01 3.00000E-01
 -1       615 1.30000E+00 5.00000E-01 2.93250E-01
 -1       617 1.30000E+00 5.00000E-01 3.06750E-01
 -1       618 1.30000E+00 4.95700E-01 3.00000E-01
 -1       620 1.30000E+00 5.04300E-01 3.00000E-01
 -1       629 1.40000E+00 5.00000E-01 2.93250E-01
 -1       631 1.40000E+00 5.00000E-01 3.06750E-01
 -1       632 1.40000E+00 4.95700E-01 3.00000E-01
 -1       634 1.40000E+00 5.04300E-01 3.00000E-01
 -1       643 1.50000E+00 5.00000E-01 2.93250E-01
 -1       645 1.50000E+00 5.00000E-01 3.06750E-01
 -1       646 1.50000E+00 4.95700E-01 3.00000E-01
 -1       648 1.50000E+00 5.04300E-01 3.00000E-01
 -1       657 1.60000E+00 5.00000E-01 2.93250E-01
 -1       659 1.60000E+00 5.00000E-01 3.06750E-01
 -1       660 1.60000E+00 4.95700E-01 3.00000E-01
 -1       662 1.60000E+00 5.04300E-01 3.00000E-01
 -1       671 1.70000E+00 5.00000E-01 2.93250E-01
 -1       673 1.70000E+00 5.00000E-01 3.06750E-01
 -1       674 1.70000E+00 4.95700E-01 3.00000E-01
 -1       676 1.70000E+00 5.04300E-01 3.00000E-01
 -1       685 1.80000E+00 5.00000E-01 2.93250E-01
 -1       687 1.80000E+00 5.00000E-01 3.06750E-01
 -1       688 1.80000E+00 4.95700E-01 3.00000E-01
 -1       690 1.80000E+00 5.04300E-01 3.00000E-01
 -1       699 1.90000E+00 5.00000E-01 2.93250E-01
 -1       701 1.90000E+00 5.00000E-01 3.06750E-01
 -1       702 1.90000E+00 4.95700E-01 3.00000E-01
 -1       704 1.90000E+00 5.04300E-01 3.00000E-01
 -1       713 2.00000E+00 5.00000E-01 2.93250E-01
 -1       715 2.00000E+00 5.00000E-01 3.06750E-01
 -1       716 2.00000E+00 4.95700E-01 3.00000E-01
 -1       718 2.00000E+00 5.04300E-01 3.00000E-01
 -1       727 2.10000E+00 5.00000E-01 2.93250E-01
 -1       729 2.10000E+00 5.00000E-01 3.06750E-01
 -1       730 2.10000E+00 4.95700E-01 3.00000E-01
 -1       732 2.10000E+00 5.04300E-01 3.00000E-01
 -1       741 2.20000E+00 5.00000E-01 2.93250E-01
 -1       743 2.20000E+00 5.00000E-01 3.06750E-01
 -1       744 2.20000E+00 4.95700E-01 3.00000E-01
 -1       746 2.20000E+00 5.04300E-01 3.00000E-01
 -1       755 2.30000E+00 5.00000E-01 2.93250E-01
 -1       757 2.30000E+00 5.00000E-01 3.06750E-01
 -1       758 2.30000E+00 4.95700E-01 3.00000E-01
 -1       760 2.30000E+00 5.04300E-01 3.00000E-01
 -1       769 2.40000E+00 5.00000E-01 2.93250E-01
 -1       771 2.40000E+00 5.00000E-01 3.06750E-01
 -1       772 2.40000E+00 4.95700E-01 3.00000E-01
 -1       774 2.40000E+00 5.04300E-01 3.00000E-01
 -1       783 2.50000E+00 5.00000E-01 2.93250E-01
 -1       785 2.50000E+00 5.00000E-01 3.06750E-01
 -1       786 2.50000E+00 4.95700E-01 3.00000E-01
 -1       788 2.50000E+00 5.04300E-01 3.00000E-01
 -1       797 2.60000E+00 5.00000E-01 2.93250E-01
 -1       799 2.60000E+00 5.00000E-01 3.06750E-01
 -1       800 2.60000E+00 4.95700E-01 3.00000E-01
 -1       802 2.60000E+00 5.04300E-01 3.00000E-01
 -1       811 2.70000E+00 5.00000E-01 2.93250E-01
 -1       813 2.70000E+00 5.00000E-01 3.06750E-01
 -1       814 2.70000E+00 4.95700E-01 3.00000E-01
 -1       816 2.70000E+00 5.04300E-01 3.00000E-01
 -1       825 2.80000E+00 5.00000E-01 2.93250E-01
 -1       827 2.80000E+00 5.00000E-01 3.06750E-01
 -1       828 2.80000E+00 4.95700E-01 3.00000E-01
 -1       830 2.80000E+00 5.04300E-01 3.00000E-01
 -1       839 2.90000E+00 5.00000E-01 2.93250E-01
 -1       841 2.90000E+00 5.00000E-01 3.06750E-01
 -1       842 2.90000E+00 4.95700E-01 3.00000E-01
 -1       844 2.90000E+00 5.04300E-01 3.00000E-01
 -1       853 1.00000E-01 4.10000E-01 2.93250E-01
 -1       855 1.00000E-01 4.10000E-01 3.06750E-01
 -1       856 2.00000E-01 4.10000E-01 2.93250E-01
 -1       858 2.00000E-01 4.10000E-01 3.06750E-01
 -1       859 3.00000E-01 4.10000E-01 2.93250E-01
 -1       861 3.00000E-01 4.10000E-01 3.06750E-01
 -1       862 4.00000E-01 4.10000E-01 2.93250E-01
 -1       864 4.00000E-01 4.10000E-01 3.06750E-01
 -1       865 5.00000E-01 4.10000E-01 2.93250E-01
 -1       867 5.00000E-01 4.10000E-01 3.06750E-01
 -1       868 6.00000E-01 4.10000E-01 2.93250E-01
 -1       870 6.00000E-01 4.10000E-01 3.06750E-01
 -1       871 7.00000E-01 4.10000E-01 2.93250E-01
 -1       873 7.00000E-01 4.10000E-01 3.06750E-01
 -1       874 8.00000E-01 4.10000E-01 2.93250E-01
 -1       876 8.00000E-01 4.10000E-01 3.06750E-01
 -1       877 9.00000E-01 4.10000E-01 2.93250E-01
 -1       879 9.00000E-01 4.10000E-01 3.06750E-01
 -1       880 1.00000E+00 4.10000E-01 2.93250E-01
 -1       882 1.00000E+00 4.10000E-01 3.06750E-01
 -1       883 1.10000E+00 4.10000E-01 2.93250E-01
 -1       885 1.10000E+00 4.10000E-01 3.06750E-01
 -1       886 1.20000E+00 4.10000E-01 2.93250E-01
 -1       888 1.20000E+00 4.10000E-01 3.06750E-01
 -1       889 1.30000E+00 4.10000E-01 2.93250E-01
 -1       891 1.30000E+00 4.10000E-01 3.06750E-01
 -1       892 1.40000E+00 4.10000E-01 2.93250E-01
 -1       894 1.40000E+00 4.10000E-01 3.06750E-01
 -1       895 1.50000E+00 4.10000E-01 2.93250E-01
 -1       897 1.50000E+00 4.10000E-01 3.06750E-01
 -1       898 1.60000E+00 4.10000E-01 2.93250E-01
 -1       900 1.60000E+00 4.10000E-01 3.06750E-01
 -1       901 1.70000E+00 4.10000E-01 2.93250E-01
 -1       903 1.70000E+00 4.10000E-01 3.06750E-01
 -1       904 1.80000E+00 4.10000E-01 2.93250E-01
 -1       906 1.80000E+00 4.10000E-01 3.06750E-01
 -1       907 1.90000E+00 4.10000E-01 2.93250E-01
 -1       909 1.90000E+00 4.10000E-01 3.06750E-01
 -1       910 2.00000E+00 4.10000E-01 2.93250E-01
 -1       912 2.00000E+00 4.10000E-01 3.06750E-01
 -1       913 2.10000E+00 4.10000E-01 2.93250E-01
 -1       915 2.10000E+00 4.10000E-01 3.06750E-01
 -1       916 2.20000E+00 4.10000E-01 2.93250E-01
 -1       918 2.20000E+00 4.10000E-01 3.06750E-01
 -1       919 2.30000E+00 4.10000E-01 2.93250E-01
 -1       921 2.30000E+00 4.10000E-01 3.06750E-01
 -1       922 2.40000E+00 4.10000E-01 2.93250E-01
 -1       924 2.40000E+00 4.10000E-01 3.06750E-01
 -1       925 2.50000E+00 4.10000E-01 2.93250E-01
 -1       927 2.50000E+00 4.10000E-01 3.06750E-01
 -1       928 2.60000E+00 4.10000E-01 2.93250E-01
 -1       930 2.60000E+00 4.10000E-01 3.06750E-01
 -1       931 2.70000E+00 4.10000E-01 2.93250E-01
 -1       933 2.70000E+00 4.10000E-01 3.06750E-01
 -1       934 2.80000E+00 4.10000E-01 2.93250E-01
 -1       936 2.80000E+00 4.10000E-01 3.06750E-01
 -1       937 2.90000E+00 4.10000E-01 2.93250E-01
 -1       939 2.90000E+00 4.10000E-01 3.06750E-01
 -1       940 0.00000E+00 4.95700E-01 4.00000E-01
 -1       942 0.00000E+00 5.04300E-01 4.00000E-01
 -1       943 0.00000E+00 4.95700E-01 5.00000E-01
 -1       945 0.00000E+00 5.04300E-01 5.00000E-01
 -1       946 0.00000E+00 4.95700E-01 6.00000E-01
 -1       948 0.00000E+00 5.04300E-01 6.00000E-01
 -1       949 1.00000E-01 4.95700E-01 7.00000E-01
 -1       951 1.00000E-01 5.04300E-01 7.00000E-01
 -1       952 1.00000E-01 5.00000E-01 7.06750E-01
 -1       954 1.00000E-01 5.00000E-01 6.93250E-01
 -1       963 2.00000E-01 4.95700E-01 7.00000E-01
 -1       965 2.00000E-01 5.04300E-01 7.00000E-01
 -1       966 2.00000E-01 5.00000E-01 7.06750E-01
 -1       968 2.00000E-01 5.00000E-01 6.93250E-01
 -1       977 3.00000E-01 4.95700E-01 7.00000E-01
 -1       979 3.00000E-01 5.04300E-01 7.00000E-01
 -1       980 3.00000E-01 5.00000E-01 7.06750E-01
 -1       982 3.00000E-01 5.00000E-01 6.93250E-01
 -1       991 4.00000E-01 4.95700E-01 7.00000E-01
 -1       993 4.00000E-01 5.04300E-01 7.00000E-01
 -1       994 4.00000E-01 5.00000E-01 7.06750E-01
 -1       996 4.00000E-01 5.00000E-01 6.93250E-01
 -1      1005 5.00000E-01 4.95700E-01 7.00000E-01
 -1      1007 5.00000E-01 5.04300E-01 7.00000E-01
 -1      1008 5.00000E-01 5.00000E-01 7.06750E-01
 -1      1010 5.00000E-01 5.00000E-01 6.93250E-01
 -1      1019 6.00000E-01 4.95700E-01 7.00000E-01
 -1      1021 6.00000E-01 5.04300E-01 7.00000E-01
 -1      1022 6.00000E-01 5.00000E-01 7.06750E-01
 -1      1024 6.00000E-01 5.00000E-01 6.93250E-01
 -1      1033 7.00000E-01 4.95700E-01 7.00000E-01
 -1      1035 7.00000E-01 5.04300E-01 7.00000E-01
 -1      1036 7.00000E-01 5.00000E-01 7.06750E-01
 -1      1038 7.00000E-01 5.00000E-01 6.93250E-01
 -1      1047 8.00000E-01 4.95700E-01 7.00000E-01
 -1      1049 8.00000E-01 5.04300E-01 7.00000E-01
 -1      1050 8.00000E-01 5.00000E-01 7.06750E-01
 -1      1052 8.00000E-01 5.00000E-01 6.93250E-01
 -1      1061 9.00000E-01 4.95700E-01 7.00000E-01
 -1      1063 9.00000E-01 5.04300E-01 7.00000E-01
 -1      1064 9.00000E-01 5.00000E-01 7.06750E-01
 -1      1066 9.00000E-01 5.00000E-01 6.93250E-01
 -1      1075 1.00000E+00 4.95700E-01 7.00000E-01
 -1      1077 1.00000E+00 5.04300E-01 7.00000E-01
 -1      1078 1.00000E+00 5.00000E-01 7.06750E-01
 -1      1080 1.00000E+00 5.00000E-01 6.93250E-01
 -1      1089 1.10000E+00 4.95700E-01 7.00000E-01
 -1      1091 1.10000E+00 5.04300E-01 7.00000E-01
 -1      1092 1.10000E+00 5.00000E-01 7.06750E-01
 -1      1094 1.10000E+00 5.00000E-01 6.93250E-01
 -1      1103 1.20000E+00 4.95700E-01 7.00000E-01
 -1      1105 1.20000E+00 5.04300E-01 7.00000E-01
 -1      1106 1.20000E+00 5.00000E-01 7.06750E-01
 -1      1108 1.20000E+00 5.00000E-01 6.93250E-01
 -1      1117 1.30000E+00 4.95700E-01 7.00000E-01
 -1      1119 1.30000E+00 5.04300E-01 7.00000E-01
 -1      1120 1.30000E+00 5.00000E-01 7.06750E-01
 -1      1122 1.30000E+00 5.00000E-01 6.93250E-01
 -1      1131 1.40000E+00 4.95700E-01 7.00000E-01
 -1      1133 1.40000E+00 5.04300E-01 7.00000E-01
 -1      1134 1.40000E+00 5.00000E-01 7.06750E-01
 -1      1136 1.40000E+00 5.00000E-01 6.93250E-01
 -1      1145 1.50000E+00 4.95700E-01 7.00000E-01
 -1      1147 1.50000E+00 5.04300E-01 7.00000E-01
 -1      1148 1.50000E+00 5.00000E-01 7.06750E-01
 -1      1150 1.50000E+00 5.00000E-01 6.93250E-01
 -1      1159 1.60000E+00 4.95700E-01 7.00000E-01
 -1      1161 1.60000E+00 5.04300E-01 7.00000E-01
 -1      1162 1.60000E+00 5.00000E-01 7.06750E-01
 -1      1164 1.60000E+00 5.00000E-01 6.93250E-01
 -1      1173 1.70000E+00 4.95700E-01 7.00000E-01
 -1      1175 1.70000E+00 5.04300E-01 7.00000E-01
 -1      1176 1.70000E+00 5.00000E-01 7.06750E-01
 -1      1178 1.70000E+00 5.00000E-01 6.93250E-01
 -1      1187 1.80000E+00 4.95700E-01 7.00000E-01
 -1      1189 1.80000E+00 5.04300E-01 7.00000E-01
 -1      1190 1.80000E+00 5.00000E-01 7.06750E-01
 -1      1192 1.80000E+00 5.00000E-01 6.93250E-01
 -1      1201 1.90000E+00 4.95700E-01 7.00000E-01
 -1      1203 1.90000E+00 5.04300E-01 7.00000E-01
 -1      1204 1.90000E+00 5.00000E-01 7.06750E-01
 -1      1206 1.90000E+00 5.00000E-01 6.93250E-01
 -1      1215 2.00000E+00 4.95700E-01 7.00000E-01
 -1      1217 2.00000E+00 5.04300E-01 7.00000E-01
 -1      1218 2.00000E+00 5.00000E-01 7.06750E-01
 -1      1220 2.00000E+00 5.00000E-01 6.93250E-01
 -1      1229 2.10000E+00 4.95700E-01 7.00000E-01
 -1      1231 2.10000E+00 5.04300E-01 7.00000E-01
 -1      1232 2.10000E+00 5.00000E-01 7.06750E-01
 -1      1234 2.10000E+00 5.00000E-01 6.93250E-01
 -1      1243 2.20000E+00 4.95700E-01 7.00000E-01
 -1      1245 2.20000E+00 5.04300E-01 7.00000E-01
 -1      1246 2.20000E+00 5.00000E-01 7.06750E-01
 -1      1248 2.20000E+00 5.00000E-01 6.93250E-01
 -1      1257 2.30000E+00 4.95700E-01 7.00000E-01
 -1      1259 2.30000E+00 5.04300E-01 7.00000E-01
 -1      1260 2.30000E+00 5.00000E-01 7.06750E-01
 -1      1262 2.30000E+00 5.00000E-01 6.93250E-01
 -1      1271 2.40000E+00 4.95700E-01 7.00000E-01
 -1      1273 2.40000E+00 5.04300E-01 7.00000E-01
 -1      1274 2.40000E+00 5.00000E-01 7.06750E-01
 -1      1276 2.40000E+00 5.00000E-01 6.93250E-01
 -1      1285 2.50000E+00 4.95700E-01 7.00000E-01
 -1      1287 2.50000E+00 5.04300E-01 7.00000E-01
 -1      1288 2.50000E+00 5.00000E-01 7.06750E-01
 -1      1290 2.50000E+00 5.00000E-01 6.93250E-01
 -1      1299 2.60000E+00 4.95700E-01 7.00000E-01
 -1      1301 2.60000E+00 5.04300E-01 7.00000E-01
 -1      1302 2.60000E+00 5.00000E-01 7.06750E-01
 -1      1304 2.60000E+00 5.00000E-01 6.93250E-01
 -1      1313 2.70000E+00 4.95700E-01 7.00000E-01
 -1      1315 2.70000E+00 5.04300E-01 7.00000E-01
 -1      1316 2.70000E+00 5.00000E-01 7.06750E-01
 -1      1318 2.70000E+00 5.00000E-01 6.93250E-01
 -1      1327 2.80000E+00 4.95700E-01 7.00000E-01
 -1      1329 2.80000E+00 5.04300E-01 7.00000E-01
 -1      1330 2.80000E+00 5.00000E-01 7.06750E-01
 -1      1332 2.80000E+00 5.00000E-01 6.93250E-01
 -1      1341 2.90000E+00 4.95700E-01 7.00000E-01
 -1      1343 2.90000E+00 5.04300E-01 7.00000E-01
 -1      1344 2.90000E+00 5.00000E-01 7.06750E-01
 -1      1346 2.90000E+00 5.00000E-01 6.93250E-01
 -1      1355 3.00000E+00 4.95700E-01 4.00000E-01
 -1      1357 3.00000E+00 5.04300E-01 4.00000E-01
 -1      1358 3.00000E+00 4.95700E-01 5.00000E-01
 -1      1360 3.00000E+00 5.04300E-01 5.00000E-01
 -1      1361 3.00000E+00 4.95700E-01 6.00000E-01
 -1      1363 3.00000E+00 5.04300E-01 6.00000E-01
 -1      1364 1.00000E-01 4.10000E-01 7.06750E-01
 -1      1366 1.00000E-01 4.10000E-01 6.93250E-01
 -1      1367 2.00000E-01 4.10000E-01 7.06750E-01
 -1      1369 2.00000E-01 4.10000E-01 6.93250E-01
 -1      1370 3.00000E-01 4.10000E-01 7.06750E-01
 -1      1372 3.00000E-01 4.10000E-01 6.93250E-01
 -1      1373 4.00000E-01 4.10000E-01 7.06750E-01
 -1      1375 4.00000E-01 4.10000E-01 6.93250E-01
 -1      1376 5.00000E-01 4.10000E-01 7.06750E-01
 -1      1378 5.00000E-01 4.10000E-01 6.93250E-01
 -1      1379 6.00000E-01 4.10000E-01 7.06750E-01
 -1      1381 6.00000E-01 4.10000E-01 6.93250E-01
 -1      1382 7.00000E-01 4.10000E-01 7.06750E-01
 -1      1384 7.00000E-01 4.10000E-01 6.93250E-01
 -1      1385 8.00000E-01 4.10000E-01 7.06750E-01
 -1      1387 8.00000E-01 4.10000E-01 6.93250E-01
 -1      1388 9.00000E-01 4.10000E-01 7.06750E-01
 -1      1390 9.00000E-01 4.10000E-01 6.93250E-01
 -1      1391 1.00000E+00 4.10000E-01 7.06750E-01
 -1      1393 1.00000E+00 4.10000E-01 6.93250E-01
 -1      1394 1.10000E+00 4.10000E-01 7.06750E-01
 -1      1396 1.10000E+00 4.10000E-01 6.93250E-01
 -1      1397 1.20000E+00 4.10000E-01 7.06750E-01
 -1      1399 1.20000E+00 4.10000E-01 6.93250E-01
 -1      1400 1.30000E+00 4.10000E-01 7.06750E-01
 -1      1402 1.30000E+00 4.10000E-01 6.93250E-01
 -1      1403 1.40000E+00 4.10000E-01 7.06750E-01
 -1      1405 1.40000E+00 4.10000E-01 6.93250E-01
 -1      1406 1.50000E+00 4.10000E-01 7.06750E-01
 -1      1408 1.50000E+00 4.10000E-01 6.93250E-01
 -1      1409 1.60000E+00 4.10000E-01 7.06750E-01
 -1      1411 1.60000E+00 4.10000E-01 6.93250E-01
 -1      1412 1.70000E+00 4.10000E-01 7.06750E-01
 -1      1414 1.70000E+00 4.10000E-01 6.93250E-01
 -1      1415 1.80000E+00 4.10000E-01 7.06750E-01
 -1      1417 1.80000E+00 4.10000E-01 6.93250E-01
 -1      1418 1.90000E+00 4.10000E-01 7.06750E-01
 -1      1420 1.90000E+00 4.10000E-01 6.93250E-01
 -1      1421 2.00000E+00 4.10000E-01 7.06750E-01
 -1      1423 2.00000E+00 4.10000E-01 6.93250E-01
 -1      1424 2.10000E+00 4.10000E-01 7.06750E-01
 -1      1426 2.10000E+00 4.10000E-01 6.93250E-01
 -1      1427 2.20000E+00 4.10000E-01 7.06750E-01
 -1      1429 2.20000E+00 4.10000E-01 6.93250E-01
 -1      1430 2.30000E+00 4.10000E-01 7.06750E-01
 -1      1432 2.30000E+00 4.10000E-01 6.93250E-01
 -1      1433 2.40000E+00 4.10000E-01 7.06750E-01
 -1      1435 2.40000E+00 4.10000E-01 6.93250E-01
 -1      1436 2.50000E+00 4.10000E-01 7.06750E-01
 -1      1438 2.50000E+00 4.10000E-01 6.93250E-01
 -1      1439 2.60000E+00 4.10000E-01 7.06750E-01
 -1      1441 2.60000E+00 4.10000E-01 6.93250E-01
 -1      1442 2.70000E+00 4.10000E-01 7.06750E-01
 -1      1444 2.70000E+00 4.10000E-01 6.93250E-01
 -1      1445 2.80000E+00 4.10000E-01 7.06750E-01
 -1      1447 2.80000E+00 4.10000E-01 6.93250E-01
 -1      1448 2.90000E+00 4.10000E-01 7.06750E-01
 -1      1450 2.90000E+00 4.10000E-01 6.93250E-01
 -1      1451 1.00000E-01 5.90000E-01 7.06750E-01
 -1      1453 1.00000E-01 5.90000E-01 6.93250E-01
 -1      1454 2.00000E-01 5.90000E-01 7.06750E-01
 -1      1456 2.00000E-01 5.90000E-01 6.93250E-01
 -1      1457 3.00000E-01 5.90000E-01 7.06750E-01
 -1      1459 3.00000E-01 5.90000E-01 6.93250E-01
 -1      1460 4.00000E-01 5.90000E-01 7.06750E-01
 -1      1462 4.00000E-01 5.90000E-01 6.93250E-01
 -1      1463 5.00000E-01 5.90000E-01 7.06750E-01
 -1      1465 5.00000E-01 5.90000E-01 6.93250E-01
 -1      1466 6.00000E-01 5.90000E-01 7.06750E-01
 -1      1468 6.00000E-01 5.90000E-01 6.93250E-01
 -1      1469 7.00000E-01 5.90000E-01 7.06750E-01
 -1      1471 7.00000E-01 5.90000E-01 6.93250E-01
 -1      1472 8.00000E-01 5.90000E-01 7.06750E-01
 -1      1474 8.00000E-01 5.90000E-01 6.93250E-01
 -1      1475 9.00000E-01 5.90000E-01 7.06750E-01
 -1      1477 9.00000E-01 5.90000E-01 6.93250E-01
 -1      1478 1.00000E+00 5.90000E-01 7.06750E-01
 -1      1480 1.00000E+00 5.90000E-01 6.93250E-01
 -1      1481 1.10000E+00 5.90000E-01 7.06750E-01
 -1      1483 1.10000E+00 5.90000E-01 6.93250E-01
 -1      1484 1.20000E+00 5.90000E-01 7.06750E-01
 -1      1486 1.20000E+00 5.90000E-01 6.93250E-01
 -1      1487 1.30000E+00 5.90000E-01 7.06750E-01
 -1      1489 1.30000E+00 5.90000E-01 6.93250E-01
 -1      1490 1.40000E+00 5.90000E-01 7.06750E-01
 -1      1492 1.40000E+00 5.90000E-01 6.93250E-01
 -1      1493 1.50000E+00 5.90000E-01 7.06750E-01
 -1      1495 1.50000E+00 5.90000E-01 6.93250E-01
 -1      1496 1.60000E+00 5.90000E-01 7.06750E-01
 -1      1498 1.60000E+00 5.90000E-01 6.93250E-01
 -1      1499 1.70000E+00 5.90000E-01 7.06750E-01
 -1      1501 1.70000E+00 5.90000E-01 6.93250E-01
 -1      1502 1.80000E+00 5.90000E-01 7.06750E-01
 -1      1504 1.80000E+00 5.90000E-01 6.93250E-01
 -1      1505 1.90000E+00 5.90000E-01 7.06750E-01
 -1      1507 1.90000E+00 5.90000E-01 6.93250E-01
 -1      1508 2.00000E+00 5.90000E-01 7.06750E-01
 -1      1510 2.00000E+00 5.90000E-01 6.93250E-01
 -1      1511 2.10000E+00 5.90000E-01 7.06750E-01
 -1      1513 2.10000E+00 5.90000E-01 6.93250E-01
 -1      1514 2.20000E+00 5.90000E-01 7.06750E-01
 -1      1516 2.20000E+00 5.90000E-01 6.93250E-01
 -1      1517 2.30000E+00 5.90000E-01 7.06750E-01
 -1      1519 2.30000E+00 5.90000E-01 6.93250E-01
 -1      1520 2.40000E+00 5.90000E-01 7.06750E-01
 -1      1522 2.40000E+00 5.90000E-01 6.93250E-01
 -1      1523 2.50000E+00 5.90000E-01 7.06750E-01
 -1      1525 2.50000E+00 5.90000E-01 6.93250E-01
 -1      1526 2.60000E+00 5.90000E-01 7.06750E-01
 -1      1528 2.60000E+00 5.90000E-01 6.93250E-01
 -1      1529 2.70000E+00 5.90000E-01 7.06750E-01
 -1      1531 2.70000E+00 5.90000E-01 6.93250E-01
 -1      1532 2.80000E+00 5.90000E-01 7.06750E-01
 -1      1534 2.80000E+00 5.90000E-01 6.93250E-01
 -1      1535 2.90000E+00 5.90000E-01 7.06750E-01
 -1      1537 2.90000E+00 5.90000E-01 6.93250E-01
 -1      1538 8.00000E-01 4.95700E-01 4.00000E-01
 -1      1540 8.00000E-01 5.04300E-01 4.00000E-01
 -1      1541 2.10000E+00 4.95700E-01 6.00000E-01
 -1      1543 2.10000E+00 5.04300E-01 6.00000E-01
 -1      1544 2.50000E+00 4.95700E-01 4.00000E-01
 -1      1546 2.50000E+00 5.04300E-01 4.00000E-01
 -1      1547 2.80000E+00 4.95700E-01 4.00000E-01
 -1      1549 2.80000E+00 5.04300E-01 4.00000E-01
 -1      1550 1.00000E+00 4.95700E-01 6.00000E-01
 -1      1552 1.00000E+00 5.04300E-01 6.00000E-01
 -1      1553 1.30000E+00 4.95700E-01 4.00000E-01
 -1      1555 1.30000E+00 5.04300E-01 4.00000E-01
 -1      1556 1.70000E+00 4.95700E-01 4.00000E-01
 -1      1558 1.70000E+00 5.04300E-01 4.00000E-01
 -1      1559 3.00000E-01 4.95700E-01 4.00000E-01
 -1      1561 3.00000E-01 5.04300E-01 4.00000E-01
 -1      1562 6.00000E-01 4.95700E-01 4.00000E-01
 -1      1564 6.00000E-01 5.04300E-01 4.00000E-01
 -1      1565 7.00000E-01 4.95700E-01 6.00000E-01
 -1      1567 7.00000E-01 5.04300E-01 6.00000E-01
 -1      1568 2.40000E+00 4.95700E-01 6.00000E-01
 -1      1570 2.40000E+00 5.04300E-01 6.00000E-01
 -1      1571 2.70000E+00 4.95700E-01 6.00000E-01
 -1      1573 2.70000E+00 5.04300E-01 6.00000E-01
 -1      1574 2.10000E+00 4.95700E-01 4.00000E-01
 -1      1576 2.10000E+00 5.04300E-01 4.00000E-01
 -1      1577 1.00000E+00 4.95700E-01 4.00000E-01
 -1      1579 1.00000E+00 5.04300E-01 4.00000E-01
 -1      1580 1.20000E+00 4.95700E-01 6.00000E-01
 -1      1582 1.20000E+00 5.04300E-01 6.00000E-01
 -1      1583 1.30000E+00 4.95700E-01 6.00000E-01
 -1      1585 1.30000E+00 5.04300E-01 6.00000E-01
 -1      1586 1.60000E+00 4.95700E-01 6.00000E-01
 -1      1588 1.60000E+00 5.04300E-01 6.00000E-01
 -1      1589 1.80000E+00 4.95700E-01 6.00000E-01
 -1      1591 1.80000E+00 5.04300E-01 6.00000E-01
 -1      1592 1.60000E+00 4.95700E-01 4.00000E-01
 -1      1594 1.60000E+00 5.04300E-01 4.00000E-01
 -1      1595 1.90000E+00 4.95700E-01 4.00000E-01
 -1      1597 1.90000E+00 5.04300E-01 4.00000E-01
 -1      1598 2.00000E-01 4.95700E-01 6.00000E-01
 -1      1600 2.00000E-01 5.04300E-01 6.00000E-01
 -1      1601 3.00000E-01 4.95700E-01 6.00000E-01
 -1      1603 3.00000E-01 5.04300E-01 6.00000E-01
 -1      1604 5.00000E-01 4.95700E-01 6.00000E-01
 -1      1606 5.00000E-01 5.04300E-01 6.00000E-01
 -1      1607 1.00000E-01 4.95700E-01 5.00000E-01
 -1      1609 1.00000E-01 5.04300E-01 5.00000E-01
 -1      1610 2.90000E+00 4.95700E-01 6.00000E-01
 -1      1612 2.90000E+00 5.04300E-01 6.00000E-01
 -1      1613 8.00000E-01 4.95700E-01 6.00000E-01
 -1      1615 8.00000E-01 5.04300E-01 6.00000E-01
 -1      1616 2.30000E+00 4.95700E-01 4.00000E-01
 -1      1618 2.30000E+00 5.04300E-01 4.00000E-01
 -1      1619 2.20000E+00 4.95700E-01 6.00000E-01
 -1      1621 2.20000E+00 5.04300E-01 6.00000E-01
 -1      1622 2.90000E+00 4.95700E-01 4.00000E-01
 -1      1624 2.90000E+00 5.04300E-01 4.00000E-01
 -1      1625 1.20000E+00 4.95700E-01 4.00000E-01
 -1      1627 1.20000E+00 5.04300E-01 4.00000E-01
 -1      1628 1.00000E-01 4.95700E-01 4.00000E-01
 -1      1630 1.00000E-01 5.04300E-01 4.00000E-01
 -1      1631 1.90000E+00 4.95700E-01 6.00000E-01
 -1      1633 1.90000E+00 5.04300E-01 6.00000E-01
 -1      1634 1.50000E+00 4.95700E-01 4.00000E-01
 -1      1636 1.50000E+00 5.04300E-01 4.00000E-01
 -1      1637 1.40000E+00 4.95700E-01 6.00000E-01
 -1      1639 1.40000E+00 5.04300E-01 6.00000E-01
 -1      1640 2.70000E+00 4.95700E-01 4.00000E-01
 -1      1642 2.70000E+00 5.04300E-01 4.00000E-01
 -1      1643 2.50000E+00 4.95700E-01 6.00000E-01
 -1      1645 2.50000E+00 5.04300E-01 6.00000E-01
 -1      1646 1.00000E-01 4.95700E-01 6.00000E-01
 -1      1648 1.00000E-01 5.04300E-01 6.00000E-01
 -1      1649 5.00000E-01 4.95700E-01 4.00000E-01
 -1      1651 5.00000E-01 5.04300E-01 4.00000E-01
 -1      1652 7.00000E-01 4.95700E-01 5.00000E-01
 -1      1654 7.00000E-01 5.04300E-01 5.00000E-01
 -1      1655 7.00000E-01 4.95700E-01 4.00000E-01
 -1      1657 7.00000E-01 5.04300E-01 4.00000E-01
 -1      1658 2.80000E+00 4.95700E-01 5.00000E-01
 -1      1660 2.80000E+00 5.04300E-01 5.00000E-01
 -1      1661 2.10000E+00 4.95700E-01 5.00000E-01
 -1      1663 2.10000E+00 5.04300E-01 5.00000E-01
 -1      1664 2.40000E+00 4.95700E-01 5.00000E-01
 -1      1666 2.40000E+00 5.04300E-01 5.00000E-01
 -1      1667 9.00000E-01 4.95700E-01 4.00000E-01
 -1      1669 9.00000E-01 5.04300E-01 4.00000E-01
 -1      1670 6.00000E-01 4.95700E-01 6.00000E-01
 -1      1672 6.00000E-01 5.04300E-01 6.00000E-01
 -1      1673 2.00000E-01 4.95700E-01 4.00000E-01
 -1      1675 2.00000E-01 5.04300E-01 4.00000E-01
 -1      1676 1.30000E+00 4.95700E-01 5.00000E-01
 -1      1678 1.30000E+00 5.04300E-01 5.00000E-01
 -1      1679 2.20000E+00 4.95700E-01 4.00000E-01
 -1      1681 2.20000E+00 5.04300E-01 4.00000E-01
 -1      1682 2.30000E+00 4.95700E-01 6.00000E-01
 -1      1684 2.30000E+00 5.04300E-01 6.00000E-01
 -1      1685 1.10000E+00 4.95700E-01 4.00000E-01
 -1      1687 1.10000E+00 5.04300E-01 4.00000E-01
 -1      1688 2.40000E+00 4.95700E-01 4.00000E-01
 -1      1690 2.40000E+00 5.04300E-01 4.00000E-01
 -1      1691 2.60000E+00 4.95700E-01 4.00000E-01
 -1      1693 2.60000E+00 5.04300E-01 4.00000E-01
 -1      1694 1.70000E+00 4.95700E-01 5.00000E-01
 -1      1696 1.70000E+00 5.04300E-01 5.00000E-01
 -1      1697 2.60000E+00 4.95700E-01 6.00000E-01
 -1      1699 2.60000E+00 5.04300E-01 6.00000E-01
 -1      1700 1.60000E+00 4.95700E-01 5.00000E-01
 -1      1702 1.60000E+00 5.04300E-01 5.00000E-01
 -1      1703 5.00000E-01 4.95700E-01 5.00000E-01
 -1      1705 5.00000E-01 5.04300E-01 5.00000E-01
 -1      1706 1.40000E+00 4.95700E-01 4.00000E-01
 -1      1708 1.40000E+00 5.04300E-01 4.00000E-01
 -1      1709 2.00000E+00 4.95700E-01 4.00000E-01
 -1      1711 2.00000E+00 5.04300E-01 4.00000E-01
 -1      1712 9.00000E-01 4.95700E-01 6.00000E-01
 -1      1714 9.00000E-01 5.04300E-01 6.00000E-01
 -1      1715 1.80000E+00 4.95700E-01 4.00000E-01
 -1      1717 1.80000E+00 5.04300E-01 4.00000E-01
 -1      1718 1.70000E+00 4.95700E-01 6.00000E-01
 -1      1720 1.70000E+00 5.04300E-01 6.00000E-01
 -1      1721 1.90000E+00 4.95700E-01 5.00000E-01
 -1      1723 1.90000E+00 5.04300E-01 5.00000E-01
 -1      1724 1.10000E+00 4.95700E-01 6.00000E-01
 -1      1726 1.10000E+00 5.04300E-01 6.00000E-01
 -1      1727 2.80000E+00 4.95700E-01 6.00000E-01
 -1      1729 2.80000E+00 5.04300E-01 6.00000E-01
 -1      1730 1.50000E+00 4.95700E-01 6.00000E-01
 -1      1732 1.50000E+00 5.04300E-01 6.00000E-01
 -1      1733 2.90000E+00 4.95700E-01 5.00000E-01
 -1      1735 2.90000E+00 5.04300E-01 5.00000E-01
 -1      1736 2.00000E-01 4.95700E-01 5.00000E-01
 -1      1738 2.00000E-01 5.04300E-01 5.00000E-01
 -1      1739 2.00000E+00 4.95700E-01 6.00000E-01
 -1      1741 2.00000E+00 5.04300E-01 6.00000E-01
 -1      1742 4.00000E-01 4.95700E-01 4.00000E-01
 -1      1744 4.00000E-01 5.04300E-01 4.00000E-01
 -1      1745 4.00000E-01 4.95700E-01 6.00000E-01
 -1      1747 4.00000E-01 5.04300E-01 6.00000E-01
 -1      1748 9.00000E-01 4.95700E-01 5.00000E-01
 -1      1750 9.00000E-01 5.04300E-01 5.00000E-01
 -1      1751 1.00000E+00 4.95700E-01 5.00000E-01
 -1      1753 1.00000E+00 5.04300E-01 5.00000E-01
 -1      1754 2.50000E+00 4.95700E-01 5.00000E-01
 -1      1756 2.50000E+00 5.04300E-01 5.00000E-01
 -1      1757 2.70000E+00 4.95700E-01 5.00000E-01
 -1      1759 2.70000E+00 5.04300E-01 5.00000E-01
 -1      1760 2.00000E+00 4.95700E-01 5.00000E-01
 -1      1762 2.00000E+00 5.04300E-01 5.00000E-01
 -1      1763 1.10000E+00 4.95700E-01 5.00000E-01
 -1      1765 1.10000E+00 5.04300E-01 5.00000E-01
 -1      1766 2.20000E+00 4.95700E-01 5.00000E-01
 -1      1768 2.20000E+00 5.04300E-01 5.00000E-01
 -1      1769 6.00000E-01 4.95700E-01 5.00000E-01
 -1      1771 6.00000E-01 5.04300E-01 5.00000E-01
 -1      1772 1.40000E+00 4.95700E-01 5.00000E-01
 -1      1774 1.40000E+00 5.04300E-01 5.00000E-01
 -1      1775 1.50000E+00 4.95700E-01 5.00000E-01
 -1      1777 1.50000E+00 5.04300E-01 5.00000E-01
 -1      1778 1.80000E+00 4.95700E-01 5.00000E-01
 -1      1780 1.80000E+00 5.04300E-01 5.00000E-01
 -1      1781 2.30000E+00 4.95700E-01 5.00000E-01
 -1      1783 2.30000E+00 5.04300E-01 5.00000E-01
 -1      1784 4.00000E-01 4.95700E-01 5.00000E-01
 -1      1786 4.00000E-01 5.04300E-01 5.00000E-01
 -1      1787 3.00000E-01 4.95700E-01 5.00000E-01
 -1      1789 3.00000E-01 5.04300E-01 5.00000E-01
 -1      1790 1.20000E+00 4.95700E-01 5.00000E-01
 -1      1792 1.20000E+00 5.04300E-01 5.00000E-01
 -1      1793 8.00000E-01 4.95700E-01 5.00000E-01
 -1      1795 8.00000E-01 5.04300E-01 5.00000E-01
 -1      1796 2.60000E+00 4.95700E-01 5.00000E-01
 -1      1798 2.60000E+00 5.04300E-01 5.00000E-01
 -3
    3C                           480                                     1
 -1         1    2    0    1
 -2       375       517       378       377       519       380
 -1         2    2    0    1
 -2       517       531       378       519       533       380
 -1         3    2    0    1
 -2       381       545       384       383       547       386
 -1         4    2    0    1
 -2       545       559       384       547       561       386
 -1         5    2    0    1
 -2       423       741       426       425       743       428
 -1         6    2    0    1
 -2       741       755       426       743       757       428
 -1         7    2    0    1
 -2       280       300       360       282       302       362
 -1         8    2    0    1
 -2       300       447       360       302       449       362
 -1         9    2    0    1
 -2       360       447       363       362       449       365
 -1        10    2    0    1
 -2       447       461       363       449       463       365
 -1        11    2    0    1
 -2       366       475       369       368       477       371
 -1        12    2    0    1
 -2       369       489       372       371       491       374
 -1        13    2    0    1
 -2       475       489       369       477       491       371
 -1        14    2    0    1
 -2       489       503       372       491       505       374
 -1        15    2    0    1
 -2       387       573       390       389       575       392
 -1        16    2    0    1
 -2       390       587       393       392       589       395
 -1        17    2    0    1
 -2       573       587       390       575       589       392
 -1        18    2    0    1
 -2       587       601       393       589       603       395
 -1        19    2    0    1
 -2       399       629       402       401       631       404
 -1        20    2    0    1
 -2       402       643       405       404       645       407
 -1        21    2    0    1
 -2       629       643       402       631       645       404
 -1        22    2    0    1
 -2       643       657       405       645       659       407
 -1        23    2    0    1
 -2       411       685       414       413       687       416
 -1        24    2    0    1
 -2       414       699       417       416       701       419
 -1        25    2    0    1
 -2       685       699       414       687       701       416
 -1        26    2    0    1
 -2       699       713       417       701       715       419
 -1        27    2    0    1
 -2       444       286       283       446       288       285
 -1        28    2    0    1
 -2       444       839       286       446       841       288
 -1        29    2    0    1
 -2       420       727       423       422       729       425
 -1        30    2    0    1
 -2       727       741       423       729       743       425
 -1        31    2    0    1
 -2       769       429       426       771       431       428
 -1        32    2    0    1
 -2       426       755       769       428       757       771
 -1        33    2    0    1
 -2       783       432       429       785       434       431
 -1        34    2    0    1
 -2       783       429       769       785       431       771
 -1        35    2    0    1
 -2       783       435       432       785       437       434
 -1        36    2    0    1
 -2       435       811       438       437       813       440
 -1        37    2    0    1
 -2       783       797       435       785       799       437
 -1        38    2    0    1
 -2       435       797       811       437       799       813
 -1        39    2    0    1
 -2       438       811       441       440       813       443
 -1        40    2    0    1
 -2       441       825       444       443       827       446
 -1        41    2    0    1
 -2       811       825       441       813       827       443
 -1        42    2    0    1
 -2       825       839       444       827       841       446
 -1        43    2    0    1
 -2       393       601       396       395       603       398
 -1        44    2    0    1
 -2       396       615       399       398       617       401
 -1        45    2    0    1
 -2       601       615       396       603       617       398
 -1        46    2    0    1
 -2       615       629       399       617       631       401
 -1        47    2    0    1
 -2       405       657       408       407       659       410
 -1        48    2    0    1
 -2       408       671       411       410       673       413
 -1        49    2    0    1
 -2       657       671       408       659       673       410
 -1        50    2    0    1
 -2       671       685       411       673       687       413
 -1        51    2    0    1
 -2       417       713       420       419       715       422
 -1        52    2    0    1
 -2       713       727       420       715       729       422
 -1        53    2    0    1
 -2       363       461       366       365       463       368
 -1        54    2    0    1
 -2       461       475       366       463       477       368
 -1        55    2    0    1
 -2       372       503       375       374       505       377
 -1        56    2    0    1
 -2       503       517       375       505       519       377
 -1        57    2    0    1
 -2       378       531       381       380       533       383
 -1        58    2    0    1
 -2       531       545       381       533       547       383
 -1        59    2    0    1
 -2       384       559       387       386       561       389
 -1        60    2    0    1
 -2       559       573       387       561       575       389
 -1        61    2    0    1
 -2       517       868       531       519       870       533
 -1        62    2    0    1
 -2       868       871       531       870       873       533
 -1        63    2    0    1
 -2       545       874       559       547       876       561
 -1        64    2    0    1
 -2       874       877       559       876       879       561
 -1        65    2    0    1
 -2       741       916       755       743       918       757
 -1        66    2    0    1
 -2       916       919       755       918       921       757
 -1        67    2    0    1
 -2       300       317       447       302       319       449
 -1        68    2    0    1
 -2       317       853       447       319       855       449
 -1        69    2    0    1
 -2       447       853       461       449       855       463
 -1        70    2    0    1
 -2       853       856       461       855       858       463
 -1        71    2    0    1
 -2       475       859       489       477       861       491
 -1        72    2    0    1
 -2       489       862       503       491       864       505
 -1        73    2    0    1
 -2       859       862       489       861       864       491
 -1        74    2    0    1
 -2       862       865       503       864       867       505
 -1        75    2    0    1
 -2       573       880       587       575       882       589
 -1        76    2    0    1
 -2       587       883       601       589       885       603
 -1        77    2    0    1
 -2       880       883       587       882       885       589
 -1        78    2    0    1
 -2       883       886       601       885       888       603
 -1        79    2    0    1
 -2       629       892       643       631       894       645
 -1        80    2    0    1
 -2       643       895       657       645       897       659
 -1        81    2    0    1
 -2       892       895       643       894       897       645
 -1        82    2    0    1
 -2       895       898       657       897       900       659
 -1        83    2    0    1
 -2       685       904       699       687       906       701
 -1        84    2    0    1
 -2       699       907       713       701       909       715
 -1        85    2    0    1
 -2       904       907       699       906       909       701
 -1        86    2    0    1
 -2       907       910       713       909       912       715
 -1        87    2    0    1
 -2       286       839       314       288       841       316
 -1        88    2    0    1
 -2       839       937       314       841       939       316
 -1        89    2    0    1
 -2       727       913       741       729       915       743
 -1        90    2    0    1
 -2       913       916       741       915       918       743
 -1        91    2    0    1
 -2       755       919       769       757       921       771
 -1        92    2    0    1
 -2       769       922       783       771       924       785
 -1        93    2    0    1
 -2       919       922       769       921       924       771
 -1        94    2    0    1
 -2       783       925       797       785       927       799
 -1        95    2    0    1
 -2       922       925       783       924       927       785
 -1        96    2    0    1
 -2       797       928       811       799       930       813
 -1        97    2    0    1
 -2       925       928       797       927       930       799
 -1        98    2    0    1
 -2       811       931       825       813       933       827
 -1        99    2    0    1
 -2       928       931       811       930       933       813
 -1       100    2    0    1
 -2       825       934       839       827       936       841
 -1       101    2    0    1
 -2       931       934       825       933       936       827
 -1       102    2    0    1
 -2       934       937       839       936       939       841
 -1       103    2    0    1
 -2       601       886       615       603       888       617
 -1       104    2    0    1
 -2       615       889       629       617       891       631
 -1       105    2    0    1
 -2       886       889       615       888       891       617
 -1       106    2    0    1
 -2       889       892       629       891       894       631
 -1       107    2    0    1
 -2       657       898       671       659       900       673
 -1       108    2    0    1
 -2       671       901       685       673       903       687
 -1       109    2    0    1
 -2       898       901       671       900       903       673
 -1       110    2    0    1
 -2       901       904       685       903       906       687
 -1       111    2    0    1
 -2       713       910       727       715       912       729
 -1       112    2    0    1
 -2       910       913       727       912       915       729
 -1       113    2    0    1
 -2       461       856       475       463       858       477
 -1       114    2    0    1
 -2       856       859       475       858       861       477
 -1       115    2    0    1
 -2       503       865       517       505       867       519
 -1       116    2    0    1
 -2       865       868       517       867       870       519
 -1       117    2    0    1
 -2       531       871       545       533       873       547
 -1       118    2    0    1
 -2       871       874       545       873       876       547
 -1       119    2    0    1
 -2       559       877       573       561       879       575
 -1       120    2    0    1
 -2       877       880       573       879       882       575
 -1       121    2    0    1
 -2       334      1361      1341       336      1363      1343
 -1       122    2    0    1
 -2      1550      1748      1712      1552      1750      1714
 -1       123    2    0    1
 -2      1748      1793      1712      1750      1795      1714
 -1       124    2    0    1
 -2      1538      1655      1652      1540      1657      1654
 -1       125    2    0    1
 -2      1652      1793      1538      1654      1795      1540
 -1       126    2    0    1
 -2      1712      1793      1613      1714      1795      1615
 -1       127    2    0    1
 -2      1655      1769      1652      1657      1771      1654
 -1       128    2    0    1
 -2      1613      1793      1652      1615      1795      1654
 -1       129    2    0    1
 -2      1550      1751      1748      1552      1753      1750
 -1       130    2    0    1
 -2      1661      1679      1574      1663      1681      1576
 -1       131    2    0    1
 -2      1724      1751      1550      1726      1753      1552
 -1       132    2    0    1
 -2      1574      1760      1661      1576      1762      1663
 -1       133    2    0    1
 -2      1670      1769      1703      1672      1771      1705
 -1       134    2    0    1
 -2      1658      1757      1727      1660      1759      1729
 -1       135    2    0    1
 -2      1005      1670      1604      1007      1672      1606
 -1       136    2    0    1
 -2      1670      1703      1604      1672      1705      1606
 -1       137    2    0    1
 -2      1649      1769      1562      1651      1771      1564
 -1       138    2    0    1
 -2      1703      1769      1649      1705      1771      1651
 -1       139    2    0    1
 -2       464      1673      1559       466      1675      1561
 -1       140    2    0    1
 -2      1673      1736      1559      1675      1738      1561
 -1       141    2    0    1
 -2      1727      1733      1658      1729      1735      1660
 -1       142    2    0    1
 -2      1640      1796      1757      1642      1798      1759
 -1       143    2    0    1
 -2      1643      1796      1754      1645      1798      1756
 -1       144    2    0    1
 -2      1640      1757      1658      1642      1759      1660
 -1       145    2    0    1
 -2      1643      1754      1664      1645      1756      1666
 -1       146    2    0    1
 -2      1724      1763      1751      1726      1765      1753
 -1       147    2    0    1
 -2       548      1538       562       550      1540       564
 -1       148    2    0    1
 -2      1538      1667       562      1540      1669       564
 -1       149    2    0    1
 -2       562      1667      1577       564      1669      1579
 -1       150    2    0    1
 -2      1061      1712      1047      1063      1714      1049
 -1       151    2    0    1
 -2      1667      1751      1577      1669      1753      1579
 -1       152    2    0    1
 -2      1748      1751      1667      1750      1753      1669
 -1       153    2    0    1
 -2      1047      1613      1565      1049      1615      1567
 -1       154    2    0    1
 -2      1047      1712      1613      1049      1714      1615
 -1       155    2    0    1
 -2      1664      1754      1688      1666      1756      1690
 -1       156    2    0    1
 -2      1688      1781      1664      1690      1783      1666
 -1       157    2    0    1
 -2      1613      1652      1565      1615      1654      1567
 -1       158    2    0    1
 -2      1661      1766      1679      1663      1768      1681
 -1       159    2    0    1
 -2      1652      1670      1565      1654      1672      1567
 -1       160    2    0    1
 -2       520      1655       534       522      1657       536
 -1       161    2    0    1
 -2      1033      1565      1019      1035      1567      1021
 -1       162    2    0    1
 -2      1547      1658      1622      1549      1660      1624
 -1       163    2    0    1
 -2      1661      1760      1739      1663      1762      1741
 -1       164    2    0    1
 -2      1658      1733      1622      1660      1735      1624
 -1       165    2    0    1
 -2      1565      1670      1019      1567      1672      1021
 -1       166    2    0    1
 -2      1652      1769      1670      1654      1771      1672
 -1       167    2    0    1
 -2      1619      1661      1541      1621      1663      1543
 -1       168    2    0    1
 -2      1697      1796      1643      1699      1798      1645
 -1       169    2    0    1
 -2      1562      1655       520      1564      1657       522
 -1       170    2    0    1
 -2      1766      1781      1616      1768      1783      1618
 -1       171    2    0    1
 -2      1682      1781      1619      1684      1783      1621
 -1       172    2    0    1
 -2      1619      1781      1766      1621      1783      1768
 -1       173    2    0    1
 -2      1739      1760      1721      1741      1762      1723
 -1       174    2    0    1
 -2      1727      1757      1571      1729      1759      1573
 -1       175    2    0    1
 -2      1751      1763      1685      1753      1765      1687
 -1       176    2    0    1
 -2      1724      1790      1763      1726      1792      1765
 -1       177    2    0    1
 -2      1019      1670      1005      1021      1672      1007
 -1       178    2    0    1
 -2      1661      1739      1541      1663      1741      1543
 -1       179    2    0    1
 -2      1607      1736      1628      1609      1738      1630
 -1       180    2    0    1
 -2      1646      1736      1607      1648      1738      1609
 -1       181    2    0    1
 -2      1685      1790      1625      1687      1792      1627
 -1       182    2    0    1
 -2      1763      1790      1685      1765      1792      1687
 -1       183    2    0    1
 -2      1628      1673       464      1630      1675       466
 -1       184    2    0    1
 -2       963      1646       949       965      1648       951
 -1       185    2    0    1
 -2      1598      1646       963      1600      1648       965
 -1       186    2    0    1
 -2      1688      1754      1544      1690      1756      1546
 -1       187    2    0    1
 -2      1676      1790      1583      1678      1792      1585
 -1       188    2    0    1
 -2      1598      1736      1646      1600      1738      1648
 -1       189    2    0    1
 -2      1628      1736      1673      1630      1738      1675
 -1       190    2    0    1
 -2      1757      1796      1697      1759      1798      1699
 -1       191    2    0    1
 -2       450      1628       464       452      1630       466
 -1       192    2    0    1
 -2      1547      1622       842      1549      1624       844
 -1       193    2    0    1
 -2      1005      1745       991      1007      1747       993
 -1       194    2    0    1
 -2      1604      1745      1005      1606      1747      1007
 -1       195    2    0    1
 -2      1559      1787      1742      1561      1789      1744
 -1       196    2    0    1
 -2      1703      1745      1604      1705      1747      1606
 -1       197    2    0    1
 -2      1679      1766      1616      1681      1768      1618
 -1       198    2    0    1
 -2      1703      1784      1745      1705      1786      1747
 -1       199    2    0    1
 -2      1742      1787      1784      1744      1789      1786
 -1       200    2    0    1
 -2      1784      1787      1745      1786      1789      1747
 -1       201    2    0    1
 -2       828      1547       842       830      1549       844
 -1       202    2    0    1
 -2      1580      1724      1103      1582      1726      1105
 -1       203    2    0    1
 -2      1243      1619      1541      1245      1621      1543
 -1       204    2    0    1
 -2      1625      1790      1553      1627      1792      1555
 -1       205    2    0    1
 -2      1553      1790      1676      1555      1792      1678
 -1       206    2    0    1
 -2      1580      1790      1724      1582      1792      1726
 -1       207    2    0    1
 -2      1583      1772      1676      1585      1774      1678
 -1       208    2    0    1
 -2      1691      1796      1640      1693      1798      1642
 -1       209    2    0    1
 -2       744      1679      1616       746      1681      1618
 -1       210    2    0    1
 -2      1257      1682      1619      1259      1684      1621
 -1       211    2    0    1
 -2       590      1685      1625       592      1687      1627
 -1       212    2    0    1
 -2       730      1574       744       732      1576       746
 -1       213    2    0    1
 -2       800      1691      1640       802      1693      1642
 -1       214    2    0    1
 -2      1103      1724      1089      1105      1726      1091
 -1       215    2    0    1
 -2      1586      1730      1159      1588      1732      1161
 -1       216    2    0    1
 -2      1243      1541      1229      1245      1543      1231
 -1       217    2    0    1
 -2      1634      1775      1592      1636      1777      1594
 -1       218    2    0    1
 -2      1592      1775      1700      1594      1777      1702
 -1       219    2    0    1
 -2      1706      1772      1634      1708      1774      1636
 -1       220    2    0    1
 -2      1772      1775      1634      1774      1777      1636
 -1       221    2    0    1
 -2       772      1688      1544       774      1690      1546
 -1       222    2    0    1
 -2      1562      1769      1655      1564      1771      1657
 -1       223    2    0    1
 -2      1574      1679       744      1576      1681       746
 -1       224    2    0    1
 -2      1159      1730      1145      1161      1732      1147
 -1       225    2    0    1
 -2      1676      1772      1553      1678      1774      1555
 -1       226    2    0    1
 -2      1553      1772      1706      1555      1774      1708
 -1       227    2    0    1
 -2      1694      1718      1589      1696      1720      1591
 -1       228    2    0    1
 -2      1700      1718      1694      1702      1720      1696
 -1       229    2    0    1
 -2       772      1544       786       774      1546       788
 -1       230    2    0    1
 -2       814      1547       828       816      1549       830
 -1       231    2    0    1
 -2      1299      1697      1643      1301      1699      1645
 -1       232    2    0    1
 -2      1709      1760      1574      1711      1762      1576
 -1       233    2    0    1
 -2      1089      1550      1075      1091      1552      1077
 -1       234    2    0    1
 -2      1201      1631      1589      1203      1633      1591
 -1       235    2    0    1
 -2      1327      1571      1313      1329      1573      1315
 -1       236    2    0    1
 -2      1700      1775      1586      1702      1777      1588
 -1       237    2    0    1
 -2      1586      1775      1730      1588      1777      1732
 -1       238    2    0    1
 -2      1631      1721      1589      1633      1723      1591
 -1       239    2    0    1
 -2      1589      1778      1694      1591      1780      1696
 -1       240    2    0    1
 -2      1616      1781      1688      1618      1783      1690
 -1       241    2    0    1
 -2      1285      1568      1271      1287      1570      1273
 -1       242    2    0    1
 -2      1571      1697      1313      1573      1699      1315
 -1       243    2    0    1
 -2      1694      1778      1715      1696      1780      1717
 -1       244    2    0    1
 -2       289      1622      1355       291      1624      1357
 -1       245    2    0    1
 -2       576      1685       590       578      1687       592
 -1       246    2    0    1
 -2       744      1616       758       746      1618       760
 -1       247    2    0    1
 -2      1257      1619      1243      1259      1621      1245
 -1       248    2    0    1
 -2      1583      1790      1580      1585      1792      1582
 -1       249    2    0    1
 -2      1586      1718      1700      1588      1720      1702
 -1       250    2    0    1
 -2       940      1628       303       942      1630       305
 -1       251    2    0    1
 -2       702      1709       716       704      1711       718
 -1       252    2    0    1
 -2      1544      1691       786      1546      1693       788
 -1       253    2    0    1
 -2       814      1640      1547       816      1642      1549
 -1       254    2    0    1
 -2      1103      1583      1580      1105      1585      1582
 -1       255    2    0    1
 -2      1715      1778      1595      1717      1780      1597
 -1       256    2    0    1
 -2       842      1622       289       844      1624       291
 -1       257    2    0    1
 -2       716      1574       730       718      1576       732
 -1       258    2    0    1
 -2       943      1628       940       945      1630       942
 -1       259    2    0    1
 -2      1607      1628       943      1609      1630       945
 -1       260    2    0    1
 -2      1075      1550      1061      1077      1552      1063
 -1       261    2    0    1
 -2      1550      1712      1061      1552      1714      1063
 -1       262    2    0    1
 -2      1215      1739      1201      1217      1741      1203
 -1       263    2    0    1
 -2      1229      1541      1215      1231      1543      1217
 -1       264    2    0    1
 -2      1631      1739      1721      1633      1741      1723
 -1       265    2    0    1
 -2      1577      1685       576      1579      1687       578
 -1       266    2    0    1
 -2       660      1634      1592       662      1636      1594
 -1       267    2    0    1
 -2       786      1691       800       788      1693       802
 -1       268    2    0    1
 -2       800      1640       814       802      1642       816
 -1       269    2    0    1
 -2      1159      1718      1586      1161      1720      1588
 -1       270    2    0    1
 -2      1568      1682      1271      1570      1684      1273
 -1       271    2    0    1
 -2      1313      1697      1299      1315      1699      1301
 -1       272    2    0    1
 -2      1544      1754      1691      1546      1756      1693
 -1       273    2    0    1
 -2      1577      1751      1685      1579      1753      1687
 -1       274    2    0    1
 -2      1592      1700      1694      1594      1702      1696
 -1       275    2    0    1
 -2      1610      1733      1727      1612      1735      1729
 -1       276    2    0    1
 -2      1730      1772      1637      1732      1774      1639
 -1       277    2    0    1
 -2      1664      1781      1682      1666      1783      1684
 -1       278    2    0    1
 -2      1730      1775      1772      1732      1777      1774
 -1       279    2    0    1
 -2       949      1646       320       951      1648       322
 -1       280    2    0    1
 -2       590      1625       604       592      1627       606
 -1       281    2    0    1
 -2       716      1709      1574       718      1711      1576
 -1       282    2    0    1
 -2       943      1646      1607       945      1648      1609
 -1       283    2    0    1
 -2      1571      1757      1697      1573      1759      1699
 -1       284    2    0    1
 -2       632      1706       646       634      1708       648
 -1       285    2    0    1
 -2       646      1634       660       648      1636       662
 -1       286    2    0    1
 -2       646      1706      1634       648      1708      1636
 -1       287    2    0    1
 -2      1616      1688       758      1618      1690       760
 -1       288    2    0    1
 -2      1089      1724      1550      1091      1726      1552
 -1       289    2    0    1
 -2      1285      1643      1568      1287      1645      1570
 -1       290    2    0    1
 -2      1664      1682      1568      1666      1684      1570
 -1       291    2    0    1
 -2      1721      1760      1595      1723      1762      1597
 -1       292    2    0    1
 -2       604      1625      1553       606      1627      1555
 -1       293    2    0    1
 -2       688      1715       702       690      1717       704
 -1       294    2    0    1
 -2       758      1688       772       760      1690       774
 -1       295    2    0    1
 -2      1145      1730      1131      1147      1732      1133
 -1       296    2    0    1
 -2      1131      1730      1637      1133      1732      1639
 -1       297    2    0    1
 -2      1201      1589      1187      1203      1591      1189
 -1       298    2    0    1
 -2      1637      1772      1583      1639      1774      1585
 -1       299    2    0    1
 -2      1721      1778      1589      1723      1780      1591
 -1       300    2    0    1
 -2       303      1628       450       305      1630       452
 -1       301    2    0    1
 -2       464      1559       478       466      1561       480
 -1       302    2    0    1
 -2       478      1559       492       480      1561       494
 -1       303    2    0    1
 -2       492      1742       506       494      1744       508
 -1       304    2    0    1
 -2      1559      1742       492      1561      1744       494
 -1       305    2    0    1
 -2       520      1649      1562       522      1651      1564
 -1       306    2    0    1
 -2       660      1592      1556       662      1594      1558
 -1       307    2    0    1
 -2       963      1601      1598       965      1603      1600
 -1       308    2    0    1
 -2       991      1745       977       993      1747       979
 -1       309    2    0    1
 -2      1131      1637      1583      1133      1639      1585
 -1       310    2    0    1
 -2      1271      1682      1257      1273      1684      1259
 -1       311    2    0    1
 -2      1299      1643      1285      1301      1645      1287
 -1       312    2    0    1
 -2      1341      1727      1327      1343      1729      1329
 -1       313    2    0    1
 -2      1736      1787      1559      1738      1789      1561
 -1       314    2    0    1
 -2      1595      1778      1721      1597      1780      1723
 -1       315    2    0    1
 -2      1601      1736      1598      1603      1738      1600
 -1       316    2    0    1
 -2       702      1715      1595       704      1717      1597
 -1       317    2    0    1
 -2       946      1646       943       948      1648       945
 -1       318    2    0    1
 -2      1589      1718      1187      1591      1720      1189
 -1       319    2    0    1
 -2      1201      1739      1631      1203      1741      1633
 -1       320    2    0    1
 -2      1640      1658      1547      1642      1660      1549
 -1       321    2    0    1
 -2       977      1601       963       979      1603       965
 -1       322    2    0    1
 -2       977      1745      1601       979      1747      1603
 -1       323    2    0    1
 -2      1358      1610      1361      1360      1612      1363
 -1       324    2    0    1
 -2      1358      1733      1610      1360      1735      1612
 -1       325    2    0    1
 -2      1538      1793      1667      1540      1795      1669
 -1       326    2    0    1
 -2      1667      1793      1748      1669      1795      1750
 -1       327    2    0    1
 -2       320      1646       946       322      1648       948
 -1       328    2    0    1
 -2      1327      1727      1571      1329      1729      1573
 -1       329    2    0    1
 -2      1355      1733      1358      1357      1735      1360
 -1       330    2    0    1
 -2      1622      1733      1355      1624      1735      1357
 -1       331    2    0    1
 -2      1643      1664      1568      1645      1666      1570
 -1       332    2    0    1
 -2      1595      1760      1709      1597      1762      1711
 -1       333    2    0    1
 -2       618      1706       632       620      1708       634
 -1       334    2    0    1
 -2      1553      1706       618      1555      1708       620
 -1       335    2    0    1
 -2      1595      1709       702      1597      1711       704
 -1       336    2    0    1
 -2      1173      1718      1159      1175      1720      1161
 -1       337    2    0    1
 -2      1187      1718      1173      1189      1720      1175
 -1       338    2    0    1
 -2      1361      1610      1341      1363      1612      1343
 -1       339    2    0    1
 -2      1592      1694      1556      1594      1696      1558
 -1       340    2    0    1
 -2       506      1649       520       508      1651       522
 -1       341    2    0    1
 -2       506      1742      1649       508      1744      1651
 -1       342    2    0    1
 -2       534      1655       548       536      1657       550
 -1       343    2    0    1
 -2       548      1655      1538       550      1657      1540
 -1       344    2    0    1
 -2       562      1577       576       564      1579       578
 -1       345    2    0    1
 -2       604      1553       618       606      1555       620
 -1       346    2    0    1
 -2       660      1556       674       662      1558       676
 -1       347    2    0    1
 -2       674      1556       688       676      1558       690
 -1       348    2    0    1
 -2      1556      1715       688      1558      1717       690
 -1       349    2    0    1
 -2      1117      1583      1103      1119      1585      1105
 -1       350    2    0    1
 -2      1131      1583      1117      1133      1585      1119
 -1       351    2    0    1
 -2      1610      1727      1341      1612      1729      1343
 -1       352    2    0    1
 -2      1694      1715      1556      1696      1717      1558
 -1       353    2    0    1
 -2      1601      1787      1736      1603      1789      1738
 -1       354    2    0    1
 -2      1745      1787      1601      1747      1789      1603
 -1       355    2    0    1
 -2      1619      1766      1661      1621      1768      1663
 -1       356    2    0    1
 -2      1649      1742      1703      1651      1744      1705
 -1       357    2    0    1
 -2      1754      1796      1691      1756      1798      1693
 -1       358    2    0    1
 -2      1742      1784      1703      1744      1786      1705
 -1       359    2    0    1
 -2      1047      1565      1033      1049      1567      1035
 -1       360    2    0    1
 -2      1541      1739      1215      1543      1741      1217
 -1       361    2    0    1
 -2      1022      1036      1382      1024      1038      1384
 -1       362    2    0    1
 -2      1379      1022      1382      1381      1024      1384
 -1       363    2    0    1
 -2      1050      1064      1388      1052      1066      1390
 -1       364    2    0    1
 -2      1385      1050      1388      1387      1052      1390
 -1       365    2    0    1
 -2      1246      1260      1430      1248      1262      1432
 -1       366    2    0    1
 -2      1427      1246      1430      1429      1248      1432
 -1       367    2    0    1
 -2       323      1364       348       325      1366       350
 -1       368    2    0    1
 -2       323       952      1364       325       954      1366
 -1       369    2    0    1
 -2       952       966      1367       954       968      1369
 -1       370    2    0    1
 -2      1364       952      1367      1366       954      1369
 -1       371    2    0    1
 -2       980       994      1373       982       996      1375
 -1       372    2    0    1
 -2      1370       980      1373      1372       982      1375
 -1       373    2    0    1
 -2       994      1008      1376       996      1010      1378
 -1       374    2    0    1
 -2      1373       994      1376      1375       996      1378
 -1       375    2    0    1
 -2      1078      1092      1394      1080      1094      1396
 -1       376    2    0    1
 -2      1391      1078      1394      1393      1080      1396
 -1       377    2    0    1
 -2      1092      1106      1397      1094      1108      1399
 -1       378    2    0    1
 -2      1394      1092      1397      1396      1094      1399
 -1       379    2    0    1
 -2      1134      1148      1406      1136      1150      1408
 -1       380    2    0    1
 -2      1403      1134      1406      1405      1136      1408
 -1       381    2    0    1
 -2      1148      1162      1409      1150      1164      1411
 -1       382    2    0    1
 -2      1406      1148      1409      1408      1150      1411
 -1       383    2    0    1
 -2      1190      1204      1418      1192      1206      1420
 -1       384    2    0    1
 -2      1415      1190      1418      1417      1192      1420
 -1       385    2    0    1
 -2      1204      1218      1421      1206      1220      1423
 -1       386    2    0    1
 -2      1418      1204      1421      1420      1206      1423
 -1       387    2    0    1
 -2       351      1448       337       353      1450       339
 -1       388    2    0    1
 -2      1448      1344       337      1450      1346       339
 -1       389    2    0    1
 -2      1232      1246      1427      1234      1248      1429
 -1       390    2    0    1
 -2      1424      1232      1427      1426      1234      1429
 -1       391    2    0    1
 -2      1260      1274      1433      1262      1276      1435
 -1       392    2    0    1
 -2      1430      1260      1433      1432      1262      1435
 -1       393    2    0    1
 -2      1274      1288      1436      1276      1290      1438
 -1       394    2    0    1
 -2      1433      1274      1436      1435      1276      1438
 -1       395    2    0    1
 -2      1288      1302      1439      1290      1304      1441
 -1       396    2    0    1
 -2      1436      1288      1439      1438      1290      1441
 -1       397    2    0    1
 -2      1302      1316      1442      1304      1318      1444
 -1       398    2    0    1
 -2      1439      1302      1442      1441      1304      1444
 -1       399    2    0    1
 -2      1316      1330      1445      1318      1332      1447
 -1       400    2    0    1
 -2      1442      1316      1445      1444      1318      1447
 -1       401    2    0    1
 -2      1330      1344      1448      1332      1346      1450
 -1       402    2    0    1
 -2      1445      1330      1448      1447      1332      1450
 -1       403    2    0    1
 -2      1106      1120      1400      1108      1122      1402
 -1       404    2    0    1
 -2      1397      1106      1400      1399      1108      1402
 -1       405    2    0    1
 -2      1120      1134      1403      1122      1136      1405
 -1       406    2    0    1
 -2      1400      1120      1403      1402      1122      1405
 -1       407    2    0    1
 -2      1162      1176      1412      1164      1178      1414
 -1       408    2    0    1
 -2      1409      1162      1412      1411      1164      1414
 -1       409    2    0    1
 -2      1176      1190      1415      1178      1192      1417
 -1       410    2    0    1
 -2      1412      1176      1415      1414      1178      1417
 -1       411    2    0    1
 -2      1218      1232      1424      1220      1234      1426
 -1       412    2    0    1
 -2      1421      1218      1424      1423      1220      1426
 -1       413    2    0    1
 -2       966       980      1370       968       982      1372
 -1       414    2    0    1
 -2      1367       966      1370      1369       968      1372
 -1       415    2    0    1
 -2      1008      1022      1379      1010      1024      1381
 -1       416    2    0    1
 -2      1376      1008      1379      1378      1010      1381
 -1       417    2    0    1
 -2      1036      1050      1385      1038      1052      1387
 -1       418    2    0    1
 -2      1382      1036      1385      1384      1038      1387
 -1       419    2    0    1
 -2      1064      1078      1391      1066      1080      1393
 -1       420    2    0    1
 -2      1388      1064      1391      1390      1066      1393
 -1       421    2    0    1
 -2      1469      1036      1022      1471      1038      1024
 -1       422    2    0    1
 -2      1469      1022      1466      1471      1024      1468
 -1       423    2    0    1
 -2      1475      1064      1050      1477      1066      1052
 -1       424    2    0    1
 -2      1475      1050      1472      1477      1052      1474
 -1       425    2    0    1
 -2      1517      1260      1246      1519      1262      1248
 -1       426    2    0    1
 -2      1517      1246      1514      1519      1248      1516
 -1       427    2    0    1
 -2       323       357       952       325       359       954
 -1       428    2    0    1
 -2       357      1451       952       359      1453       954
 -1       429    2    0    1
 -2       952      1451       966       954      1453       968
 -1       430    2    0    1
 -2      1451      1454       966      1453      1456       968
 -1       431    2    0    1
 -2      1460       994       980      1462       996       982
 -1       432    2    0    1
 -2       980      1457      1460       982      1459      1462
 -1       433    2    0    1
 -2      1463      1008       994      1465      1010       996
 -1       434    2    0    1
 -2      1463       994      1460      1465       996      1462
 -1       435    2    0    1
 -2      1481      1092      1078      1483      1094      1080
 -1       436    2    0    1
 -2      1481      1078      1478      1483      1080      1480
 -1       437    2    0    1
 -2      1484      1106      1092      1486      1108      1094
 -1       438    2    0    1
 -2      1484      1092      1481      1486      1094      1483
 -1       439    2    0    1
 -2      1493      1148      1134      1495      1150      1136
 -1       440    2    0    1
 -2      1493      1134      1490      1495      1136      1492
 -1       441    2    0    1
 -2      1496      1162      1148      1498      1164      1150
 -1       442    2    0    1
 -2      1496      1148      1493      1498      1150      1495
 -1       443    2    0    1
 -2      1505      1204      1190      1507      1206      1192
 -1       444    2    0    1
 -2      1505      1190      1502      1507      1192      1504
 -1       445    2    0    1
 -2      1508      1218      1204      1510      1220      1206
 -1       446    2    0    1
 -2      1508      1204      1505      1510      1206      1507
 -1       447    2    0    1
 -2      1535       354       337      1537       356       339
 -1       448    2    0    1
 -2       337      1344      1535       339      1346      1537
 -1       449    2    0    1
 -2      1514      1246      1232      1516      1248      1234
 -1       450    2    0    1
 -2      1514      1232      1511      1516      1234      1513
 -1       451    2    0    1
 -2      1520      1274      1260      1522      1276      1262
 -1       452    2    0    1
 -2      1520      1260      1517      1522      1262      1519
 -1       453    2    0    1
 -2      1523      1288      1274      1525      1290      1276
 -1       454    2    0    1
 -2      1523      1274      1520      1525      1276      1522
 -1       455    2    0    1
 -2      1526      1302      1288      1528      1304      1290
 -1       456    2    0    1
 -2      1526      1288      1523      1528      1290      1525
 -1       457    2    0    1
 -2      1529      1316      1302      1531      1318      1304
 -1       458    2    0    1
 -2      1529      1302      1526      1531      1304      1528
 -1       459    2    0    1
 -2      1532      1330      1316      1534      1332      1318
 -1       460    2    0    1
 -2      1532      1316      1529      1534      1318      1531
 -1       461    2    0    1
 -2      1535      1344      1330      1537      1346      1332
 -1       462    2    0    1
 -2      1535      1330      1532      1537      1332      1534
 -1       463    2    0    1
 -2      1487      1120      1106      1489      1122      1108
 -1       464    2    0    1
 -2      1487      1106      1484      1489      1108      1486
 -1       465    2    0    1
 -2      1490      1134      1120      1492      1136      1122
 -1       466    2    0    1
 -2      1490      1120      1487      1492      1122      1489
 -1       467    2    0    1
 -2      1499      1176      1162      1501      1178      1164
 -1       468    2    0    1
 -2      1499      1162      1496      1501      1164      1498
 -1       469    2    0    1
 -2      1502      1190      1176      1504      1192      1178
 -1       470    2    0    1
 -2      1502      1176      1499      1504      1178      1501
 -1       471    2    0    1
 -2      1511      1232      1218      1513      1234      1220
 -1       472    2    0    1
 -2      1511      1218      1508      1513      1220      1510
 -1       473    2    0    1
 -2       966      1454       980       968      1456       982
 -1       474    2    0    1
 -2      1454      1457       980      1456      1459       982
 -1       475    2    0    1
 -2      1466      1022      1008      1468      1024      1010
 -1       476    2    0    1
 -2      1466      1008      1463      1468      1010      1465
 -1       477    2    0    1
 -2      1472      1050      1036      1474      1052      1038
 -1       478    2    0    1
 -2      1472      1036      1469      1474      1038      1471
 -1       479    2    0    1
 -2      1478      1078      1064      1480      1080      1066
 -1       480    2    0    1
 -2      1478      1064      1475      1480      1066      1477
 -3
    1PSTEP                         1           1           1          
  100CL  101 50.00000000         682                     0    1           1
 -4  DISP        4    1
 -5  D1          1    2    1    0
 -5  D2          1    2    2    0
 -5  D3          1    2    3    0
 -5  ALL         1    2    0    0    1ALL
 -1       280 0.00000E+00 0.00000E+00-1.79783E-06
 -1       282 0.00000E+00 0.00000E+00 1.79783E-06
 -1       283-4.57516E-04-2.01218E-05-5.32107E-03
 -1       285-4.27652E-04-2.23015E-05-5.32109E-03
 -1       286-4.57888E-04-1.99216E-05-5.33562E-03
 -1       288-4.28269E-04-2.24645E-05-5.33567E-03
 -1       289-4.43113E-04-2.11898E-05-5.33645E-03
 -1       291-4.43045E-04-2.11963E-05-5.33483E-03
 -1       300 0.00000E+00 1.43996E-21-8.70839E-07
 -1       302 0.00000E+00 1.43996E-21 8.70839E-07
 -1       303 0.00000E+00-5.54757E-07 0.00000E+00
 -1       305 0.00000E+00 5.54757E-07 0.00000E+00
 -1       314-4.58071E-04-1.93336E-05-5.35522E-03
 -1       316-4.28580E-04-2.29847E-05-5.35524E-03
 -1       317 0.00000E+00 0.00000E+00-1.23827E-06
 -1       319 0.00000E+00 0.00000E+00 1.23827E-06
 -1       320 0.00000E+00 4.95540E-07 0.00000E+00
 -1       322 0.00000E+00-4.95540E-07 0.00000E+00
 -1       323 0.00000E+00-1.29173E-21-7.77882E-07
 -1       325 0.00000E+00-1.29173E-21 7.77882E-07
 -1       334 4.33085E-04-9.00737E-05-5.33717E-03
 -1       336 4.33146E-04-9.00667E-05-5.33594E-03
 -1       337 4.47867E-04-9.10380E-05-5.33656E-03
 -1       339 4.18363E-04-8.91024E-05-5.33654E-03
 -1       348 0.00000E+00 0.00000E+00-1.75836E-06
 -1       350 0.00000E+00 0.00000E+00 1.75836E-06
 -1       351 4.46268E-04-9.12184E-05-5.35101E-03
 -1       353 4.16359E-04-8.89744E-05-5.35097E-03
 -1       354 4.49573E-04-9.08110E-05-5.32617E-03
 -1       356 4.19716E-04-8.92953E-05-5.32614E-03
 -1       357 0.00000E+00 0.00000E+00-1.33614E-06
 -1       359 0.00000E+00 0.00000E+00 1.33614E-06
 -1       360-4.15996E-05 9.52423E-06-2.94852E-05
 -1       362-3.29890E-05 7.13336E-06-2.83692E-05
 -1       363-7.99067E-05 5.97556E-06-9.53947E-05
 -1       365-7.24088E-05 5.56076E-06-9.41513E-05
 -1       366-1.20049E-04 2.97212E-06-1.69713E-04
 -1       368-1.06305E-04 1.54724E-06-1.68297E-04
 -1       369-1.54356E-04-7.70886E-07-2.62674E-04
 -1       371-1.41737E-04-7.09354E-07-2.61527E-04
 -1       372-1.88067E-04-3.11818E-06-3.67119E-04
 -1       374-1.72266E-04-3.63137E-06-3.65707E-04
 -1       375-2.18424E-04-5.46341E-06-4.87623E-04
 -1       377-2.01285E-04-5.73886E-06-4.86612E-04
 -1       378-2.46815E-04-6.88529E-06-6.22492E-04
 -1       380-2.27457E-04-7.90570E-06-6.21678E-04
 -1       381-2.72310E-04-8.75659E-06-7.67700E-04
 -1       383-2.52250E-04-9.46366E-06-7.66728E-04
 -1       384-2.96148E-04-1.01460E-05-9.21140E-04
 -1       386-2.74333E-04-1.09653E-05-9.20152E-04
 -1       387-3.18027E-04-1.10278E-05-1.08927E-03
 -1       389-2.94263E-04-1.23904E-05-1.08863E-03
 -1       390-3.37051E-04-1.20074E-05-1.26633E-03
 -1       392-3.12947E-04-1.32580E-05-1.26576E-03
 -1       393-3.54748E-04-1.26593E-05-1.44971E-03
 -1       395-3.29205E-04-1.41120E-05-1.44917E-03
 -1       396-3.70306E-04-1.33333E-05-1.64025E-03
 -1       398-3.44188E-04-1.47974E-05-1.63973E-03
 -1       399-3.84501E-04-1.37241E-05-1.83774E-03
 -1       401-3.57297E-04-1.54771E-05-1.83731E-03
 -1       402-3.96718E-04-1.43858E-05-2.03958E-03
 -1       404-3.69285E-04-1.59696E-05-2.03919E-03
 -1       405-4.07735E-04-1.49164E-05-2.24486E-03
 -1       407-3.79532E-04-1.65656E-05-2.24448E-03
 -1       408-4.17405E-04-1.51919E-05-2.45702E-03
 -1       410-3.88340E-04-1.71104E-05-2.45676E-03
 -1       411-4.25285E-04-1.57198E-05-2.67161E-03
 -1       413-3.96382E-04-1.74950E-05-2.67134E-03
 -1       414-4.32299E-04-1.61516E-05-2.88726E-03
 -1       416-4.02890E-04-1.79587E-05-2.88704E-03
 -1       417-4.38227E-04-1.64487E-05-3.10638E-03
 -1       419-4.08393E-04-1.84224E-05-3.10628E-03
 -1       420-4.42883E-04-1.68307E-05-3.32733E-03
 -1       422-4.13145E-04-1.87439E-05-3.32721E-03
 -1       423-4.46807E-04-1.71523E-05-3.54794E-03
 -1       425-4.16974E-04-1.91962E-05-3.54783E-03
 -1       426-4.50105E-04-1.75561E-05-3.77020E-03
 -1       428-4.19905E-04-1.95440E-05-3.77012E-03
 -1       429-4.52479E-04-1.81304E-05-3.99411E-03
 -1       431-4.22148E-04-1.96044E-05-3.99403E-03
 -1       432-4.54028E-04-1.81085E-05-4.21696E-03
 -1       434-4.24067E-04-2.03175E-05-4.21696E-03
 -1       435-4.55420E-04-1.89458E-05-4.43900E-03
 -1       437-4.25336E-04-2.03284E-05-4.43897E-03
 -1       438-4.56215E-04-1.88999E-05-4.66081E-03
 -1       440-4.26314E-04-2.11194E-05-4.66082E-03
 -1       441-4.56750E-04-1.96084E-05-4.88148E-03
 -1       443-4.27040E-04-2.11764E-05-4.88149E-03
 -1       444-4.57104E-04-1.98566E-05-5.10111E-03
 -1       446-4.27524E-04-2.17151E-05-5.10113E-03
 -1       447-4.62347E-05-1.06640E-06-4.04980E-05
 -1       449-3.59719E-05-1.92571E-06-3.80480E-05
 -1       450-4.09682E-05-2.27769E-06-3.95468E-05
 -1       452-4.12384E-05-7.14415E-07-3.89992E-05
 -1       461-8.50558E-05-4.76817E-06-9.75687E-05
 -1       463-7.75168E-05-4.64377E-06-9.60599E-05
 -1       464-8.14158E-05-5.18722E-06-9.67746E-05
 -1       466-8.11568E-05-4.22472E-06-9.68540E-05
 -1       475-1.24120E-04-7.08740E-06-1.75391E-04
 -1       477-1.12917E-04-7.79281E-06-1.73656E-04
 -1       478-1.18530E-04-7.99413E-06-1.74748E-04
 -1       480-1.18507E-04-6.88608E-06-1.74299E-04
 -1       489-1.59560E-04-9.70370E-06-2.63600E-04
 -1       491-1.46426E-04-9.87628E-06-2.62381E-04
 -1       492-1.53008E-04-1.01802E-05-2.63046E-04
 -1       494-1.52978E-04-9.39979E-06-2.62936E-04
 -1       503-1.92449E-04-1.11829E-05-3.70727E-04
 -1       505-1.76918E-04-1.20657E-05-3.69545E-04
 -1       506-1.84739E-04-1.20035E-05-3.70417E-04
 -1       508-1.84629E-04-1.12451E-05-3.69855E-04
 -1       517-2.22520E-04-1.26803E-05-4.92476E-04
 -1       519-2.04859E-04-1.36756E-05-4.91147E-04
 -1       520-2.13726E-04-1.36050E-05-4.92128E-04
 -1       522-2.13654E-04-1.27510E-05-4.91494E-04
 -1       531-2.50476E-04-1.38283E-05-6.29503E-04
 -1       533-2.31313E-04-1.49555E-05-6.28293E-04
 -1       534-2.40878E-04-1.47814E-05-6.29257E-04
 -1       536-2.40911E-04-1.40024E-05-6.28539E-04
 -1       545-2.75736E-04-1.50186E-05-7.73413E-04
 -1       547-2.55875E-04-1.61220E-05-7.72660E-04
 -1       548-2.65853E-04-1.58147E-05-7.73388E-04
 -1       550-2.65758E-04-1.53259E-05-7.72685E-04
 -1       559-2.99415E-04-1.56562E-05-9.28681E-04
 -1       561-2.77283E-04-1.71168E-05-9.27817E-04
 -1       562-2.88389E-04-1.66673E-05-9.28714E-04
 -1       564-2.88309E-04-1.61057E-05-9.27784E-04
 -1       573-3.20745E-04-1.61737E-05-1.09928E-03
 -1       575-2.97016E-04-1.78204E-05-1.09835E-03
 -1       576-3.08877E-04-1.72974E-05-1.09934E-03
 -1       578-3.08884E-04-1.66967E-05-1.09829E-03
 -1       587-3.39669E-04-1.65224E-05-1.27607E-03
 -1       589-3.15336E-04-1.82012E-05-1.27527E-03
 -1       590-3.27474E-04-1.76237E-05-1.27621E-03
 -1       592-3.27532E-04-1.70999E-05-1.27514E-03
 -1       601-3.56935E-04-1.66994E-05-1.46057E-03
 -1       603-3.31597E-04-1.85482E-05-1.45990E-03
 -1       604-3.44267E-04-1.78435E-05-1.46082E-03
 -1       606-3.44265E-04-1.74041E-05-1.45965E-03
 -1       615-3.72576E-04-1.69279E-05-1.65157E-03
 -1       617-3.46148E-04-1.88531E-05-1.65099E-03
 -1       618-3.59346E-04-1.80827E-05-1.65190E-03
 -1       620-3.59378E-04-1.76984E-05-1.65067E-03
 -1       629-3.86417E-04-1.70005E-05-1.84999E-03
 -1       631-3.59373E-04-1.89688E-05-1.84945E-03
 -1       632-3.72943E-04-1.81659E-05-1.85035E-03
 -1       634-3.72847E-04-1.78035E-05-1.84909E-03
 -1       643-3.98588E-04-1.72437E-05-2.05106E-03
 -1       645-3.71279E-04-1.91390E-05-2.05066E-03
 -1       646-3.84956E-04-1.83278E-05-2.05146E-03
 -1       648-3.84911E-04-1.80549E-05-2.05026E-03
 -1       657-4.09616E-04-1.72868E-05-2.25730E-03
 -1       659-3.81140E-04-1.94059E-05-2.25694E-03
 -1       660-3.95380E-04-1.84699E-05-2.25779E-03
 -1       662-3.95377E-04-1.82228E-05-2.25644E-03
 -1       671-4.18979E-04-1.73095E-05-2.47048E-03
 -1       673-3.90022E-04-1.94540E-05-2.47014E-03
 -1       674-4.04519E-04-1.84988E-05-2.47099E-03
 -1       676-4.04483E-04-1.82647E-05-2.46963E-03
 -1       685-4.26806E-04-1.74733E-05-2.68430E-03
 -1       687-3.97883E-04-1.95809E-05-2.68411E-03
 -1       688-4.12360E-04-1.85981E-05-2.68487E-03
 -1       690-4.12329E-04-1.84561E-05-2.68353E-03
 -1       699-4.33705E-04-1.75704E-05-2.90053E-03
 -1       701-4.04261E-04-1.97381E-05-2.90027E-03
 -1       702-4.18986E-04-1.87455E-05-2.90109E-03
 -1       704-4.18981E-04-1.85630E-05-2.89971E-03
 -1       713-4.39502E-04-1.75730E-05-3.12052E-03
 -1       715-4.09592E-04-1.99359E-05-3.12033E-03
 -1       716-4.24532E-04-1.88231E-05-3.12118E-03
 -1       718-4.24563E-04-1.86858E-05-3.11967E-03
 -1       727-4.44071E-04-1.77369E-05-3.34127E-03
 -1       729-4.14286E-04-1.99591E-05-3.34114E-03
 -1       730-4.29188E-04-1.88998E-05-3.34192E-03
 -1       732-4.29169E-04-1.87963E-05-3.34050E-03
 -1       741-4.47967E-04-1.78294E-05-3.56238E-03
 -1       743-4.17987E-04-2.02660E-05-3.56232E-03
 -1       744-4.32970E-04-1.90779E-05-3.56313E-03
 -1       746-4.32984E-04-1.90175E-05-3.56158E-03
 -1       755-4.50901E-04-1.79892E-05-3.78501E-03
 -1       757-4.20900E-04-2.03511E-05-3.78494E-03
 -1       758-4.35899E-04-1.92050E-05-3.78573E-03
 -1       760-4.35902E-04-1.91353E-05-3.78422E-03
 -1       769-4.53232E-04-1.81022E-05-4.00763E-03
 -1       771-4.23172E-04-2.05577E-05-4.00763E-03
 -1       772-4.38198E-04-1.93389E-05-4.00841E-03
 -1       774-4.38206E-04-1.93209E-05-4.00685E-03
 -1       783-4.54881E-04-1.83237E-05-4.23048E-03
 -1       785-4.24940E-04-2.07714E-05-4.23048E-03
 -1       786-4.39909E-04-1.95592E-05-4.23126E-03
 -1       788-4.39912E-04-1.95358E-05-4.22970E-03
 -1       797-4.56080E-04-1.85772E-05-4.45279E-03
 -1       799-4.26116E-04-2.10695E-05-4.45280E-03
 -1       800-4.41104E-04-1.98298E-05-4.45359E-03
 -1       802-4.41091E-04-1.98169E-05-4.45200E-03
 -1       811-4.56844E-04-1.88887E-05-4.67459E-03
 -1       813-4.27036E-04-2.14033E-05-4.67463E-03
 -1       814-4.41935E-04-2.01441E-05-4.67541E-03
 -1       816-4.41944E-04-2.01479E-05-4.67380E-03
 -1       825-4.57367E-04-1.91227E-05-4.89560E-03
 -1       827-4.27549E-04-2.17479E-05-4.89563E-03
 -1       828-4.42485E-04-2.04358E-05-4.89645E-03
 -1       830-4.42431E-04-2.04347E-05-4.89478E-03
 -1       839-4.57686E-04-1.95544E-05-5.11611E-03
 -1       841-4.27941E-04-2.20389E-05-5.11615E-03
 -1       842-4.42815E-04-2.07945E-05-5.11692E-03
 -1       844-4.42811E-04-2.07988E-05-5.11534E-03
 -1       853-4.59945E-05-1.16946E-05-4.02967E-05
 -1       855-4.05351E-05-1.15234E-05-3.92119E-05
 -1       856-8.70907E-05-1.48019E-05-9.86964E-05
 -1       858-7.58645E-05-1.49604E-05-9.70895E-05
 -1       859-1.23336E-04-1.64840E-05-1.79043E-04
 -1       861-1.12731E-04-1.74361E-05-1.77802E-04
 -1       862-1.58675E-04-1.79336E-05-2.69523E-04
 -1       864-1.45110E-04-1.92127E-05-2.67975E-04
 -1       865-1.91001E-04-1.90659E-05-3.77796E-04
 -1       867-1.75781E-04-2.02707E-05-3.76670E-04
 -1       868-2.21284E-04-1.98460E-05-5.01293E-04
 -1       870-2.03505E-04-2.15314E-05-5.00373E-04
 -1       871-2.48788E-04-2.06087E-05-6.38439E-04
 -1       873-2.29940E-04-2.20779E-05-6.37346E-04
 -1       874-2.74129E-04-2.10315E-05-7.82903E-04
 -1       876-2.54024E-04-2.26944E-05-7.81800E-04
 -1       877-2.97853E-04-2.09632E-05-9.41038E-04
 -1       879-2.75424E-04-2.32025E-05-9.40287E-04
 -1       880-3.18688E-04-2.11194E-05-1.11177E-03
 -1       882-2.95494E-04-2.31650E-05-1.11110E-03
 -1       883-3.37971E-04-2.09371E-05-1.28912E-03
 -1       885-3.13379E-04-2.31031E-05-1.28847E-03
 -1       886-3.55114E-04-2.07371E-05-1.47412E-03
 -1       888-3.29919E-04-2.29322E-05-1.47350E-03
 -1       889-3.70892E-04-2.04518E-05-1.66613E-03
 -1       891-3.44429E-04-2.28552E-05-1.66561E-03
 -1       892-3.84713E-04-2.02186E-05-1.86434E-03
 -1       894-3.57817E-04-2.25097E-05-1.86385E-03
 -1       895-3.97023E-04-1.99470E-05-2.06549E-03
 -1       897-3.69618E-04-2.23071E-05-2.06502E-03
 -1       898-4.08168E-04-1.95621E-05-2.27331E-03
 -1       900-3.79595E-04-2.22353E-05-2.27297E-03
 -1       901-4.17482E-04-1.93739E-05-2.48614E-03
 -1       903-3.88776E-04-2.18148E-05-2.48579E-03
 -1       904-4.25589E-04-1.91029E-05-2.69997E-03
 -1       906-3.96552E-04-2.16921E-05-2.69969E-03
 -1       907-4.32654E-04-1.88591E-05-2.91708E-03
 -1       909-4.03049E-04-2.15515E-05-2.91690E-03
 -1       910-4.38400E-04-1.86850E-05-3.13745E-03
 -1       912-4.08662E-04-2.14174E-05-3.13728E-03
 -1       913-4.43207E-04-1.86018E-05-3.35795E-03
 -1       915-4.13423E-04-2.12369E-05-3.35778E-03
 -1       916-4.47241E-04-1.84688E-05-3.57975E-03
 -1       918-4.17125E-04-2.12616E-05-3.57965E-03
 -1       919-4.50330E-04-1.84189E-05-3.80242E-03
 -1       921-4.20245E-04-2.11966E-05-3.80233E-03
 -1       922-4.52824E-04-1.83706E-05-4.02548E-03
 -1       924-4.22605E-04-2.12376E-05-4.02540E-03
 -1       925-4.54649E-04-1.84373E-05-4.24843E-03
 -1       927-4.24499E-04-2.13063E-05-4.24841E-03
 -1       928-4.55976E-04-1.85218E-05-4.47122E-03
 -1       930-4.25884E-04-2.15538E-05-4.47119E-03
 -1       931-4.56906E-04-1.87809E-05-4.69333E-03
 -1       933-4.26862E-04-2.17329E-05-4.69332E-03
 -1       934-4.57501E-04-1.87430E-05-4.91533E-03
 -1       936-4.27595E-04-2.22538E-05-4.91534E-03
 -1       937-4.57815E-04-1.94173E-05-5.13590E-03
 -1       939-4.28176E-04-2.22486E-05-5.13592E-03
 -1       940 0.00000E+00-4.38998E-07 0.00000E+00
 -1       942 0.00000E+00 4.38998E-07 0.00000E+00
 -1       943 0.00000E+00-2.80185E-08 0.00000E+00
 -1       945 0.00000E+00 2.80185E-08 0.00000E+00
 -1       946 0.00000E+00 4.70257E-07 0.00000E+00
 -1       948 0.00000E+00-4.70257E-07 0.00000E+00
 -1       949 4.11908E-05-9.83291E-07-3.88533E-05
 -1       951 4.10072E-05-2.56284E-06-3.94997E-05
 -1       952 4.62830E-05-1.26556E-06-4.04183E-05
 -1       954 3.59150E-05-2.28057E-06-3.79348E-05
 -1       963 8.12289E-05-5.31530E-06-9.60833E-05
 -1       965 8.15592E-05-6.39420E-06-9.61982E-05
 -1       966 8.48085E-05-5.76474E-06-9.69884E-05
 -1       968 7.79796E-05-5.94476E-06-9.52931E-05
 -1       977 1.18107E-04-9.25060E-06-1.71545E-04
 -1       979 1.18213E-04-1.00584E-05-1.72440E-04
 -1       980 1.23848E-04-8.95232E-06-1.72629E-04
 -1       982 1.12472E-04-1.03566E-05-1.71356E-04
 -1       991 1.52202E-04-1.29452E-05-2.65365E-04
 -1       993 1.52675E-04-1.40985E-05-2.65718E-04
 -1       994 1.58517E-04-1.32450E-05-2.66449E-04
 -1       996 1.46360E-04-1.37986E-05-2.64633E-04
 -1      1005 1.84397E-04-1.71937E-05-3.68852E-04
 -1      1007 1.84670E-04-1.80816E-05-3.69307E-04
 -1      1008 1.91538E-04-1.72805E-05-3.69780E-04
 -1      1010 1.77529E-04-1.79949E-05-3.68379E-04
 -1      1019 2.13466E-04-2.12658E-05-4.91696E-04
 -1      1021 2.13772E-04-2.20031E-05-4.91981E-04
 -1      1022 2.22266E-04-2.14108E-05-4.92423E-04
 -1      1024 2.04972E-04-2.18582E-05-4.91254E-04
 -1      1033 2.40218E-04-2.52499E-05-6.29861E-04
 -1      1035 2.40770E-04-2.61213E-05-6.30018E-04
 -1      1036 2.49564E-04-2.55632E-05-6.30629E-04
 -1      1038 2.31424E-04-2.58080E-05-6.29249E-04
 -1      1047 2.65039E-04-2.94265E-05-7.73302E-04
 -1      1049 2.65324E-04-3.00184E-05-7.73395E-04
 -1      1050 2.75010E-04-2.96501E-05-7.73820E-04
 -1      1052 2.55353E-04-2.97948E-05-7.72877E-04
 -1      1061 2.87116E-04-3.34569E-05-9.32639E-04
 -1      1063 2.87452E-04-3.39318E-05-9.32596E-04
 -1      1064 2.98125E-04-3.37285E-05-9.32999E-04
 -1      1066 2.76443E-04-3.36602E-05-9.32236E-04
 -1      1075 3.07417E-04-3.72789E-05-1.10118E-03
 -1      1077 3.07826E-04-3.80732E-05-1.10108E-03
 -1      1078 3.19007E-04-3.77527E-05-1.10176E-03
 -1      1080 2.96236E-04-3.75994E-05-1.10050E-03
 -1      1089 3.26011E-04-4.14336E-05-1.27537E-03
 -1      1091 3.26354E-04-4.18019E-05-1.27525E-03
 -1      1092 3.37861E-04-4.17134E-05-1.27561E-03
 -1      1094 3.14504E-04-4.15221E-05-1.27501E-03
 -1      1103 3.42535E-04-4.51245E-05-1.45892E-03
 -1      1105 3.42755E-04-4.55052E-05-1.45869E-03
 -1      1106 3.55211E-04-4.54920E-05-1.45912E-03
 -1      1108 3.30079E-04-4.51377E-05-1.45850E-03
 -1      1117 3.57211E-04-4.86541E-05-1.65192E-03
 -1      1119 3.57671E-04-4.91766E-05-1.65160E-03
 -1      1120 3.70352E-04-4.91612E-05-1.65218E-03
 -1      1122 3.44530E-04-4.86695E-05-1.65134E-03
 -1      1131 3.70615E-04-5.22305E-05-1.84856E-03
 -1      1133 3.70768E-04-5.24876E-05-1.84819E-03
 -1      1134 3.84164E-04-5.26455E-05-1.84859E-03
 -1      1136 3.57220E-04-5.20725E-05-1.84816E-03
 -1      1145 3.81870E-04-5.54293E-05-2.05258E-03
 -1      1147 3.82368E-04-5.58029E-05-2.05212E-03
 -1      1148 3.95724E-04-5.59826E-05-2.05266E-03
 -1      1150 3.68513E-04-5.52496E-05-2.05204E-03
 -1      1159 3.92117E-04-5.86427E-05-2.25887E-03
 -1      1161 3.92245E-04-5.88666E-05-2.25834E-03
 -1      1162 4.06273E-04-5.91650E-05-2.25880E-03
 -1      1164 3.78088E-04-5.83442E-05-2.25841E-03
 -1      1173 4.00604E-04-6.15704E-05-2.47098E-03
 -1      1175 4.00966E-04-6.18364E-05-2.47038E-03
 -1      1176 4.15025E-04-6.21769E-05-2.47090E-03
 -1      1178 3.86545E-04-6.12300E-05-2.47046E-03
 -1      1187 4.08129E-04-6.44815E-05-2.68485E-03
 -1      1189 4.08306E-04-6.46569E-05-2.68420E-03
 -1      1190 4.22710E-04-6.50775E-05-2.68468E-03
 -1      1192 3.93725E-04-6.40609E-05-2.68437E-03
 -1      1201 4.14225E-04-6.70924E-05-2.90195E-03
 -1      1203 4.14575E-04-6.72893E-05-2.90120E-03
 -1      1204 4.29023E-04-6.77783E-05-2.90175E-03
 -1      1206 3.99776E-04-6.66034E-05-2.90141E-03
 -1      1215 4.19422E-04-6.96123E-05-3.12141E-03
 -1      1217 4.19573E-04-6.97675E-05-3.12059E-03
 -1      1218 4.34382E-04-7.03399E-05-3.12114E-03
 -1      1220 4.04613E-04-6.90399E-05-3.12086E-03
 -1      1229 4.23495E-04-7.19878E-05-3.34266E-03
 -1      1231 4.23758E-04-7.21042E-05-3.34179E-03
 -1      1232 4.38530E-04-7.27345E-05-3.34233E-03
 -1      1234 4.08723E-04-7.13575E-05-3.34212E-03
 -1      1243 4.26814E-04-7.43242E-05-3.56401E-03
 -1      1245 4.27003E-04-7.44188E-05-3.56311E-03
 -1      1246 4.41865E-04-7.50830E-05-3.56365E-03
 -1      1248 4.11952E-04-7.36600E-05-3.56347E-03
 -1      1257 4.29276E-04-7.65008E-05-3.78643E-03
 -1      1259 4.29504E-04-7.65760E-05-3.78546E-03
 -1      1260 4.44409E-04-7.73026E-05-3.78602E-03
 -1      1262 4.14371E-04-7.57743E-05-3.78587E-03
 -1      1271 4.31057E-04-7.86100E-05-4.00923E-03
 -1      1273 4.31276E-04-7.86606E-05-4.00820E-03
 -1      1274 4.46208E-04-7.94415E-05-4.00877E-03
 -1      1276 4.16125E-04-7.78291E-05-4.00866E-03
 -1      1285 4.32247E-04-8.06917E-05-4.23180E-03
 -1      1287 4.32473E-04-8.07236E-05-4.23072E-03
 -1      1288 4.47388E-04-8.15580E-05-4.23130E-03
 -1      1290 4.17332E-04-7.98573E-05-4.23122E-03
 -1      1299 4.33017E-04-8.26571E-05-4.45418E-03
 -1      1301 4.33167E-04-8.26771E-05-4.45307E-03
 -1      1302 4.48095E-04-8.35395E-05-4.45366E-03
 -1      1304 4.18089E-04-8.17947E-05-4.45360E-03
 -1      1313 4.33318E-04-8.45542E-05-4.67613E-03
 -1      1315 4.33526E-04-8.45674E-05-4.67498E-03
 -1      1316 4.48414E-04-8.54637E-05-4.67558E-03
 -1      1318 4.18431E-04-8.36580E-05-4.67552E-03
 -1      1327 4.33360E-04-8.64730E-05-4.89727E-03
 -1      1329 4.33571E-04-8.64707E-05-4.89605E-03
 -1      1330 4.48392E-04-8.74240E-05-4.89668E-03
 -1      1332 4.18540E-04-8.55196E-05-4.89665E-03
 -1      1341 4.33258E-04-8.82788E-05-5.11767E-03
 -1      1343 4.33395E-04-8.82709E-05-5.11649E-03
 -1      1344 4.48161E-04-8.92041E-05-5.11709E-03
 -1      1346 4.18492E-04-8.73456E-05-5.11707E-03
 -1      1355-2.24070E-04-3.96622E-05-5.33631E-03
 -1      1357-2.24004E-04-3.96623E-05-5.33477E-03
 -1      1358-5.05505E-06-5.72204E-05-5.33644E-03
 -1      1360-4.91635E-06-5.72259E-05-5.33490E-03
 -1      1361 2.13928E-04-7.46251E-05-5.33680E-03
 -1      1363 2.14207E-04-7.46163E-05-5.33528E-03
 -1      1364 4.09914E-05 9.23801E-06-2.86603E-05
 -1      1366 3.27160E-05 6.74889E-06-2.73530E-05
 -1      1367 7.89197E-05 4.89872E-06-9.31326E-05
 -1      1369 7.15293E-05 4.33191E-06-9.21924E-05
 -1      1370 1.18563E-04 7.30257E-07-1.64235E-04
 -1      1372 1.05197E-04-8.51795E-07-1.62583E-04
 -1      1373 1.53286E-04-4.17513E-06-2.60875E-04
 -1      1375 1.38915E-04-5.03731E-06-2.59697E-04
 -1      1376 1.86043E-04-9.04653E-06-3.66133E-04
 -1      1378 1.69880E-04-9.56986E-06-3.65277E-04
 -1      1379 2.16687E-04-1.38270E-05-4.88405E-04
 -1      1381 1.97867E-04-1.43827E-05-4.87217E-04
 -1      1382 2.44400E-04-1.83649E-05-6.28009E-04
 -1      1384 2.24026E-04-1.90926E-05-6.27129E-04
 -1      1385 2.69284E-04-2.34510E-05-7.74110E-04
 -1      1387 2.48581E-04-2.32050E-05-7.73361E-04
 -1      1388 2.93152E-04-2.78789E-05-9.32612E-04
 -1      1390 2.69784E-04-2.79935E-05-9.31509E-04
 -1      1391 3.13785E-04-3.23681E-05-1.10245E-03
 -1      1393 2.89990E-04-3.24504E-05-1.10186E-03
 -1      1394 3.32878E-04-3.70778E-05-1.27825E-03
 -1      1396 3.08267E-04-3.64914E-05-1.27774E-03
 -1      1397 3.50346E-04-4.12565E-05-1.46172E-03
 -1      1399 3.24296E-04-4.08353E-05-1.46080E-03
 -1      1400 3.65961E-04-4.52599E-05-1.65527E-03
 -1      1402 3.38769E-04-4.48518E-05-1.65488E-03
 -1      1403 3.79355E-04-4.93065E-05-1.85328E-03
 -1      1405 3.52236E-04-4.85386E-05-1.85278E-03
 -1      1406 3.91735E-04-5.30399E-05-2.05757E-03
 -1      1408 3.63246E-04-5.22894E-05-2.05709E-03
 -1      1409 4.02016E-04-5.66145E-05-2.26503E-03
 -1      1411 3.73675E-04-5.56383E-05-2.26468E-03
 -1      1412 4.11338E-04-5.99884E-05-2.47741E-03
 -1      1414 3.82032E-04-5.89796E-05-2.47704E-03
 -1      1415 4.18996E-04-6.32084E-05-2.69233E-03
 -1      1417 3.89730E-04-6.20326E-05-2.69206E-03
 -1      1418 4.25699E-04-6.62690E-05-2.91006E-03
 -1      1420 3.95886E-04-6.49220E-05-2.90979E-03
 -1      1421 4.31136E-04-6.90384E-05-3.13006E-03
 -1      1423 4.01158E-04-6.76902E-05-3.12990E-03
 -1      1424 4.35522E-04-7.17258E-05-3.35208E-03
 -1      1426 4.05431E-04-7.02425E-05-3.35190E-03
 -1      1427 4.38954E-04-7.43460E-05-3.57417E-03
 -1      1429 4.08929E-04-7.26682E-05-3.57402E-03
 -1      1430 4.41724E-04-7.67514E-05-3.79691E-03
 -1      1432 4.11520E-04-7.50228E-05-3.79680E-03
 -1      1433 4.43674E-04-7.90523E-05-4.02026E-03
 -1      1435 4.13501E-04-7.72716E-05-4.02017E-03
 -1      1436 4.44999E-04-8.13166E-05-4.24342E-03
 -1      1438 4.14920E-04-7.94186E-05-4.24334E-03
 -1      1439 4.45887E-04-8.34283E-05-4.46623E-03
 -1      1441 4.15826E-04-8.14646E-05-4.46616E-03
 -1      1442 4.46323E-04-8.54773E-05-4.68859E-03
 -1      1444 4.16364E-04-8.34079E-05-4.68853E-03
 -1      1445 4.46404E-04-8.74415E-05-4.91017E-03
 -1      1447 4.16643E-04-8.53725E-05-4.91013E-03
 -1      1448 4.46383E-04-8.94143E-05-5.13082E-03
 -1      1450 4.16638E-04-8.71231E-05-5.13076E-03
 -1      1451 4.67565E-05-1.16910E-05-4.27301E-05
 -1      1453 4.05497E-05-1.23143E-05-4.18669E-05
 -1      1454 8.79165E-05-1.53280E-05-1.02955E-04
 -1      1456 7.64228E-05-1.66629E-05-1.01174E-04
 -1      1457 1.24093E-04-1.78851E-05-1.85227E-04
 -1      1459 1.13417E-04-2.05931E-05-1.83677E-04
 -1      1460 1.60120E-04-2.17511E-05-2.74049E-04
 -1      1462 1.46124E-04-2.31570E-05-2.72821E-04
 -1      1463 1.93010E-04-2.50466E-05-3.76864E-04
 -1      1465 1.77286E-04-2.68188E-05-3.76014E-04
 -1      1466 2.23672E-04-2.88344E-05-4.96264E-04
 -1      1468 2.05277E-04-2.95005E-05-4.95071E-04
 -1      1469 2.51450E-04-3.23692E-05-6.33673E-04
 -1      1471 2.31399E-04-3.28966E-05-6.32796E-04
 -1      1472 2.76272E-04-3.55915E-05-7.77538E-04
 -1      1474 2.55941E-04-3.66074E-05-7.76791E-04
 -1      1475 3.00104E-04-3.92861E-05-9.33913E-04
 -1      1477 2.77044E-04-3.96130E-05-9.32815E-04
 -1      1478 3.20666E-04-4.28452E-05-1.10199E-03
 -1      1480 2.97126E-04-4.29967E-05-1.10141E-03
 -1      1481 3.39583E-04-4.61788E-05-1.27627E-03
 -1      1483 3.15210E-04-4.66056E-05-1.27577E-03
 -1      1484 3.56792E-04-4.95510E-05-1.45825E-03
 -1      1486 3.30982E-04-4.95733E-05-1.45735E-03
 -1      1487 3.72156E-04-5.27911E-05-1.65027E-03
 -1      1489 3.45212E-04-5.26880E-05-1.64989E-03
 -1      1490 3.85270E-04-5.57765E-05-1.84668E-03
 -1      1492 3.58416E-04-5.57381E-05-1.84619E-03
 -1      1493 3.97383E-04-5.86929E-05-2.04934E-03
 -1      1495 3.69143E-04-5.83941E-05-2.04888E-03
 -1      1496 4.07400E-04-6.14835E-05-2.25527E-03
 -1      1498 3.79307E-04-6.12072E-05-2.25494E-03
 -1      1499 4.16458E-04-6.41565E-05-2.46612E-03
 -1      1501 3.87387E-04-6.36519E-05-2.46576E-03
 -1      1502 4.23851E-04-6.67486E-05-2.67962E-03
 -1      1504 3.94820E-04-6.61871E-05-2.67936E-03
 -1      1505 4.30265E-04-6.90861E-05-2.89581E-03
 -1      1507 4.00700E-04-6.84465E-05-2.89555E-03
 -1      1508 4.35478E-04-7.13861E-05-3.11430E-03
 -1      1510 4.05735E-04-7.06005E-05-3.11415E-03
 -1      1511 4.39684E-04-7.35499E-05-3.33492E-03
 -1      1513 4.09798E-04-7.26589E-05-3.33475E-03
 -1      1514 4.42963E-04-7.56786E-05-3.55583E-03
 -1      1516 4.13118E-04-7.47314E-05-3.55570E-03
 -1      1517 4.45566E-04-7.77197E-05-3.77748E-03
 -1      1519 4.15534E-04-7.66419E-05-3.77737E-03
 -1      1520 4.47386E-04-7.96799E-05-3.99974E-03
 -1      1522 4.17389E-04-7.85299E-05-3.99965E-03
 -1      1523 4.48601E-04-8.16251E-05-4.22181E-03
 -1      1525 4.18688E-04-8.04251E-05-4.22173E-03
 -1      1526 4.49381E-04-8.35233E-05-4.44367E-03
 -1      1528 4.19462E-04-8.22351E-05-4.44360E-03
 -1      1529 4.49735E-04-8.53662E-05-4.66515E-03
 -1      1531 4.19913E-04-8.40013E-05-4.66511E-03
 -1      1532 4.49768E-04-8.72386E-05-4.88598E-03
 -1      1534 4.20111E-04-8.57942E-05-4.88594E-03
 -1      1535 4.49716E-04-8.89188E-05-5.10619E-03
 -1      1537 4.19999E-04-8.76602E-05-5.10613E-03
 -1      1538-1.32274E-04-2.30200E-05-7.68049E-04
 -1      1540-1.32262E-04-2.24653E-05-7.67650E-04
 -1      1541 2.09810E-04-6.13526E-05-3.34094E-03
 -1      1543 2.09984E-04-6.13685E-05-3.33995E-03
 -1      1544-2.21571E-04-3.68811E-05-4.23083E-03
 -1      1546-2.21513E-04-3.68669E-05-4.22941E-03
 -1      1547-2.23416E-04-3.87634E-05-4.89634E-03
 -1      1549-2.23374E-04-3.87693E-05-4.89484E-03
 -1      1550 1.52410E-04-3.61092E-05-1.09392E-03
 -1      1552 1.52682E-04-3.62016E-05-1.09373E-03
 -1      1553-1.79473E-04-3.07315E-05-1.64766E-03
 -1      1555-1.79271E-04-3.07048E-05-1.64669E-03
 -1      1556-2.02353E-04-3.28079E-05-2.46830E-03
 -1      1558-2.02376E-04-3.26492E-05-2.46724E-03
 -1      1559-5.80819E-05-1.02376E-05-1.62360E-04
 -1      1561-5.75877E-05-9.90969E-06-1.62099E-04
 -1      1562-1.05864E-04-1.92271E-05-4.89435E-04
 -1      1564-1.05668E-04-1.88997E-05-4.89006E-04
 -1      1565 1.19090E-04-2.68974E-05-6.21548E-04
 -1      1567 1.19277E-04-2.72909E-05-6.21572E-04
 -1      1568 2.13415E-04-6.57372E-05-4.00849E-03
 -1      1570 2.13530E-04-6.57516E-05-4.00732E-03
 -1      1571 2.14356E-04-7.02203E-05-4.67558E-03
 -1      1573 2.14452E-04-7.02147E-05-4.67432E-03
 -1      1574-2.15630E-04-3.49252E-05-3.34035E-03
 -1      1576-2.15580E-04-3.49081E-05-3.33909E-03
 -1      1577-1.52814E-04-2.63842E-05-1.09538E-03
 -1      1579-1.52662E-04-2.59015E-05-1.09494E-03
 -1      1580 1.69799E-04-4.19805E-05-1.45723E-03
 -1      1582 1.70133E-04-4.21478E-05-1.45691E-03
 -1      1583 1.77076E-04-4.50145E-05-1.64686E-03
 -1      1585 1.77332E-04-4.52065E-05-1.64650E-03
 -1      1586 1.94369E-04-5.19131E-05-2.25745E-03
 -1      1588 1.94627E-04-5.20427E-05-2.25682E-03
 -1      1589 2.02342E-04-5.59140E-05-2.68280E-03
 -1      1591 2.02406E-04-5.59901E-05-2.68195E-03
 -1      1592-1.97810E-04-3.19748E-05-2.25647E-03
 -1      1594-1.97624E-04-3.19048E-05-2.25542E-03
 -1      1595-2.10017E-04-3.32636E-05-2.90023E-03
 -1      1597-2.09892E-04-3.32474E-05-2.89902E-03
 -1      1598 3.84116E-05-8.31633E-06-9.14861E-05
 -1      1600 3.86649E-05-8.70811E-06-9.19553E-05
 -1      1601 5.74364E-05-1.30652E-05-1.63540E-04
 -1      1603 5.80296E-05-1.36078E-05-1.63569E-04
 -1      1604 9.04100E-05-2.02432E-05-3.66078E-04
 -1      1606 9.06602E-05-2.07332E-05-3.66268E-04
 -1      1607-1.71596E-07-3.90764E-06-3.19583E-05
 -1      1609 1.45122E-07-3.93040E-06-3.20268E-05
 -1      1610 2.14192E-04-7.26943E-05-5.11720E-03
 -1      1612 2.14276E-04-7.26857E-05-5.11581E-03
 -1      1613 1.31251E-04-2.96397E-05-7.70201E-04
 -1      1615 1.31450E-04-2.96437E-05-7.70150E-04
 -1      1616-2.19210E-04-3.55385E-05-3.78502E-03
 -1      1618-2.19095E-04-3.55310E-05-3.78376E-03
 -1      1619 2.11508E-04-6.30084E-05-3.56275E-03
 -1      1621 2.11606E-04-6.30093E-05-3.56171E-03
 -1      1622-2.23749E-04-3.90187E-05-5.11682E-03
 -1      1624-2.23708E-04-3.90359E-05-5.11526E-03
 -1      1625-1.71445E-04-2.93090E-05-1.45706E-03
 -1      1627-1.71328E-04-2.90541E-05-1.45628E-03
 -1      1628-1.83272E-05-3.63558E-06-2.83739E-05
 -1      1630-1.75656E-05-3.11276E-06-2.82932E-05
 -1      1631 2.05268E-04-5.75322E-05-2.90117E-03
 -1      1633 2.05349E-04-5.75729E-05-2.90027E-03
 -1      1634-1.92922E-04-3.14401E-05-2.04871E-03
 -1      1636-1.92918E-04-3.13351E-05-2.04769E-03
 -1      1637 1.83660E-04-4.75315E-05-1.84657E-03
 -1      1639 1.83948E-04-4.77205E-05-1.84613E-03
 -1      1640-2.22988E-04-3.82880E-05-4.67514E-03
 -1      1642-2.22893E-04-3.82910E-05-4.67363E-03
 -1      1643 2.14003E-04-6.74548E-05-4.23105E-03
 -1      1645 2.14116E-04-6.74561E-05-4.22984E-03
 -1      1646 1.76618E-05-3.37481E-06-2.83406E-05
 -1      1648 1.84471E-05-3.96151E-06-2.83055E-05
 -1      1649-9.12118E-05-1.70879E-05-3.63966E-04
 -1      1651-9.09247E-05-1.67515E-05-3.63592E-04
 -1      1652-1.22424E-06-2.54916E-05-6.17109E-04
 -1      1654-1.01048E-06-2.58249E-05-6.16759E-04
 -1      1655-1.19684E-04-2.14492E-05-6.19980E-04
 -1      1657-1.19420E-04-2.11860E-05-6.19498E-04
 -1      1658-4.49719E-06-5.56815E-05-4.89640E-03
 -1      1660-4.50254E-06-5.56685E-05-4.89504E-03
 -1      1661-2.90606E-06-4.88946E-05-3.34004E-03
 -1      1663-2.80086E-06-4.89838E-05-3.33883E-03
 -1      1664-3.58474E-06-5.17634E-05-4.00787E-03
 -1      1666-3.38553E-06-5.17786E-05-4.00663E-03
 -1      1667-1.42729E-04-2.41366E-05-9.26303E-04
 -1      1669-1.42467E-04-2.41841E-05-9.25672E-04
 -1      1670 1.04548E-04-2.40126E-05-4.83790E-04
 -1      1672 1.04921E-04-2.40873E-05-4.83876E-04
 -1      1673-3.86223E-05-7.27069E-06-9.19062E-05
 -1      1675-3.86481E-05-6.77186E-06-9.14679E-05
 -1      1676-1.14102E-06-3.92502E-05-1.64769E-03
 -1      1678-9.31467E-07-3.92974E-05-1.64709E-03
 -1      1679-2.17524E-04-3.51001E-05-3.56263E-03
 -1      1681-2.17530E-04-3.50208E-05-3.56136E-03
 -1      1682 2.12600E-04-6.42294E-05-3.78556E-03
 -1      1684 2.12672E-04-6.42458E-05-3.78439E-03
 -1      1685-1.62574E-04-2.79348E-05-1.27129E-03
 -1      1687-1.62354E-04-2.79970E-05-1.27050E-03
 -1      1688-2.20495E-04-3.64777E-05-4.00777E-03
 -1      1690-2.20422E-04-3.64668E-05-4.00637E-03
 -1      1691-2.22406E-04-3.74303E-05-4.45323E-03
 -1      1693-2.22311E-04-3.74437E-05-4.45180E-03
 -1      1694-1.64552E-06-4.46189E-05-2.46698E-03
 -1      1696-1.57774E-06-4.46413E-05-2.46601E-03
 -1      1697 2.14249E-04-6.86778E-05-4.45365E-03
 -1      1699 2.14362E-04-6.86753E-05-4.45232E-03
 -1      1700-1.72066E-06-4.31243E-05-2.25671E-03
 -1      1702-1.61795E-06-4.31243E-05-2.25583E-03
 -1      1703 1.22721E-07-2.02457E-05-3.60665E-04
 -1      1705 3.60124E-07-2.04302E-05-3.60431E-04
 -1      1706-1.86516E-04-3.14311E-05-1.84590E-03
 -1      1708-1.86576E-04-3.12867E-05-1.84486E-03
 -1      1709-2.12975E-04-3.43273E-05-3.11996E-03
 -1      1711-2.12870E-04-3.42781E-05-3.11877E-03
 -1      1712 1.42044E-04-3.23933E-05-9.27754E-04
 -1      1714 1.42396E-04-3.29435E-05-9.27600E-04
 -1      1715-2.06708E-04-3.27922E-05-2.68310E-03
 -1      1717-2.06702E-04-3.27292E-05-2.68200E-03
 -1      1718 1.98517E-04-5.43337E-05-2.46780E-03
 -1      1720 1.98753E-04-5.44257E-05-2.46711E-03
 -1      1721-2.49186E-06-4.61825E-05-2.90019E-03
 -1      1723-2.22669E-06-4.63000E-05-2.89907E-03
 -1      1724 1.61615E-04-3.90009E-05-1.27094E-03
 -1      1726 1.61892E-04-3.94117E-05-1.27064E-03
 -1      1727 2.14326E-04-7.16588E-05-4.89679E-03
 -1      1729 2.14416E-04-7.16526E-05-4.89539E-03
 -1      1730 1.89749E-04-4.99558E-05-2.04866E-03
 -1      1732 1.89929E-04-5.01020E-05-2.04814E-03
 -1      1733-4.78916E-06-5.61426E-05-5.11685E-03
 -1      1735-4.71278E-06-5.61455E-05-5.11544E-03
 -1      1736-2.20843E-07-9.63050E-06-8.29815E-05
 -1      1738 7.43330E-08-9.57137E-06-8.28785E-05
 -1      1739 2.07647E-04-5.97034E-05-3.11962E-03
 -1      1741 2.07789E-04-5.97085E-05-3.11874E-03
 -1      1742-7.51992E-05-1.37768E-05-2.54805E-04
 -1      1744-7.48189E-05-1.31619E-05-2.54448E-04
 -1      1745 7.48200E-05-1.71927E-05-2.53693E-04
 -1      1747 7.51783E-05-1.74322E-05-2.53699E-04
 -1      1748-3.75850E-07-2.96793E-05-9.26683E-04
 -1      1750-1.42124E-07-2.96958E-05-9.26293E-04
 -1      1751 5.75209E-08-3.22681E-05-1.09215E-03
 -1      1753 1.93440E-07-3.21570E-05-1.09170E-03
 -1      1754-3.73461E-06-5.28749E-05-4.23072E-03
 -1      1756-3.73463E-06-5.28562E-05-4.22941E-03
 -1      1757-4.33734E-06-5.46872E-05-4.67520E-03
 -1      1759-4.16196E-06-5.46979E-05-4.67383E-03
 -1      1760-2.56782E-06-4.79118E-05-3.11930E-03
 -1      1762-2.51920E-06-4.78103E-05-3.11824E-03
 -1      1763-3.96629E-07-3.47564E-05-1.27172E-03
 -1      1765-9.72560E-08-3.46391E-05-1.27130E-03
 -1      1766-3.05862E-06-4.95093E-05-3.56260E-03
 -1      1768-3.04387E-06-4.94905E-05-3.56136E-03
 -1      1769-6.87046E-07-2.30119E-05-4.83998E-04
 -1      1771-5.61232E-07-2.28734E-05-4.83830E-04
 -1      1772-1.43892E-06-4.16069E-05-1.84334E-03
 -1      1774-1.33498E-06-4.15198E-05-1.84268E-03
 -1      1775-1.70898E-06-4.20980E-05-2.04799E-03
 -1      1777-1.73813E-06-4.20955E-05-2.04711E-03
 -1      1778-2.12356E-06-4.49885E-05-2.68283E-03
 -1      1780-2.13335E-06-4.48861E-05-2.68186E-03
 -1      1781-3.41618E-06-5.03692E-05-3.78501E-03
 -1      1783-3.31004E-06-5.03746E-05-3.78375E-03
 -1      1784-1.01892E-07-1.60272E-05-2.56210E-04
 -1      1786 3.77249E-07-1.61678E-05-2.56094E-04
 -1      1787 3.90785E-07-1.27199E-05-1.60556E-04
 -1      1789 4.06691E-07-1.27304E-05-1.60379E-04
 -1      1790-6.41248E-07-3.74503E-05-1.45372E-03
 -1      1792-5.40709E-07-3.73211E-05-1.45320E-03
 -1      1793-7.62780E-07-2.73783E-05-7.67383E-04
 -1      1795-6.46611E-07-2.71943E-05-7.67084E-04
 -1      1796-4.06134E-06-5.34720E-05-4.45321E-03
 -1      1798-4.00214E-06-5.34716E-05-4.45191E-03
 -3
    1PSTEP                         2           1           1          
  100CL  101 50.00000000         682                     0    1           1
 -4  STRESS      6    1
 -5  SXX         1    4    1    1
 -5  SYY         1    4    2    2
 -5  SZZ         1    4    3    3
 -5  SXY         1    4    1    2
 -5  SYZ         1    4    2    3
 -5  SZX         1    4    3    1
 -1       280-9.52142E+07-2.97750E+07-4.01722E+06 7.44580E+06-5.39325E+06-5.43597E+06
 -1       282-7.70610E+07-2.19959E+07 3.76022E+06 6.00617E+06-4.15185E+06-6.92960E+06
 -1       283-5.61842E+05-6.18122E+05-3.11014E+05 8.59287E+04-5.99172E+04-3.97421E+04
 -1       285 4.02836E+05 4.89274E+05 3.10637E+05 5.70229E+04-4.92292E+04-4.43395E+04
 -1       286-1.24931E+05-5.18672E+05-1.83045E+05 2.21204E+04-1.14862E+04-1.96486E+04
 -1       288-4.38028E+04 3.89539E+05 1.13753E+05 1.22837E+01-1.68579E+04-1.92670E+04
 -1       289 1.35337E+05 7.87797E+04 8.16398E+05-3.92284E+03 1.38795E+04-3.67268E+05
 -1       291 1.80814E+05 7.09020E+04 7.44660E+05 5.57469E+02 1.18898E+04-3.51173E+05
 -1       300-9.37557E+07-2.07933E+07-2.49100E+06 2.69203E+06-7.89859E+05-4.21893E+06
 -1       302-8.58952E+07-1.84011E+07 5.83445E+05 2.45843E+06-1.66510E+06-3.43816E+06
 -1       303-6.36033E+07 2.10820E+06-6.77092E+06-1.95857E+04 5.43611E+05-1.81946E+07
 -1       305-6.32960E+07 2.11962E+06-7.04080E+06 9.99862E+03 1.60573E+05-1.76948E+07
 -1       314-3.50704E+05-8.21192E+05-3.03825E+05-4.49341E+04 7.85720E+04-8.72609E+02
 -1       316 9.10657E+04 7.58547E+05 3.02603E+05-2.30718E+05 6.59298E+04 2.22205E+03
 -1       317-9.06943E+07-1.45729E+07 1.31262E+06-5.28059E+06-1.67689E+06-5.67274E+06
 -1       319-9.62740E+07-1.79483E+07-1.37113E+06-3.36330E+06-9.74361E+05-6.30496E+06
 -1       320 6.35380E+07-1.81978E+06 7.39444E+06 8.47295E+03 2.09507E+04-1.77212E+07
 -1       322 6.38640E+07-1.85619E+06 6.94801E+06-6.22512E+04-2.92968E+05-1.81969E+07
 -1       323 9.93472E+07 2.32561E+07 4.93390E+06 3.15489E+06 1.27920E+06-3.82718E+06
 -1       325 7.94747E+07 1.56769E+07-3.30460E+06 1.78180E+06 1.35348E+06-3.89650E+06
 -1       334 7.08251E+04 1.27834E+05-2.94549E+05 1.50481E+04-1.49524E+05-2.90582E+05
 -1       336-3.51030E+05-2.01427E+05-9.70233E+05 1.45740E+04-1.50520E+05-3.92671E+05
 -1       337 2.98969E+05 5.54944E+05 2.24210E+05-1.01724E+04-2.58014E+04 4.10522E+03
 -1       339-1.28635E+05-4.69653E+05-2.11406E+05 5.77826E+04-2.68125E+04-3.97101E+03
 -1       348 9.37969E+07 2.92926E+07 3.86334E+06 7.20649E+06 5.61493E+06-5.46119E+06
 -1       350 7.63694E+07 2.18229E+07-3.60803E+06 5.70823E+06 4.30451E+06-6.79053E+06
 -1       351 4.52716E+05 5.36539E+05 2.28419E+05-8.32307E+03 5.78287E+04-3.36665E+04
 -1       353-2.02095E+05-3.33619E+05-2.28977E+05 2.34052E+05 5.12149E+04-5.05333E+04
 -1       354-2.77460E+05-4.89446E+05-2.74180E+05-1.13538E+05-5.68333E+04-4.47885E+04
 -1       356 4.38851E+05 6.20093E+05 2.73480E+05-3.18567E+04-6.18749E+04-2.86700E+04
 -1       357 9.15740E+07 1.50647E+07-9.93202E+05-5.17194E+06 1.70400E+06-5.64138E+06
 -1       359 9.61528E+07 1.74019E+07 1.08428E+06-3.66289E+06 7.88962E+05-6.46508E+06
 -1       360-9.08613E+07-1.17225E+07-2.10777E+06 3.92360E+06 9.40011E+04-1.03642E+05
 -1       362-7.94053E+07-8.76497E+06 2.21536E+06 2.93066E+06-8.77072E+04-4.34791E+05
 -1       363-8.17643E+07 1.84264E+05 7.95291E+04 1.70650E+06 1.84995E+05 3.68605E+05
 -1       365-8.09440E+07-1.12674E+06-6.69662E+04 1.71076E+06-2.31170E+05 2.39533E+05
 -1       366-7.89705E+07-1.80236E+05-9.88326E+05 1.71342E+06 1.65695E+05-2.51364E+05
 -1       368-7.34595E+07 9.20886E+05 9.95235E+05 2.76728E+06-3.56259E+04-2.26473E+05
 -1       369-7.21843E+07-1.27455E+05-5.52352E+05 2.09374E+06-9.62418E+04 2.83582E+05
 -1       371-6.94657E+07 8.77364E+05 5.64747E+05 2.72049E+06-1.99272E+05 1.78335E+05
 -1       372-6.78377E+07-1.12746E+06-1.21527E+06 2.48084E+06-1.16392E+05 3.25376E+04
 -1       374-6.26514E+07 1.71471E+06 1.19291E+06 2.27556E+06-2.94603E+04-3.91533E+03
 -1       375-6.22565E+07-1.34440E+06-1.14979E+06 2.28954E+06-9.66424E+04 1.74966E+05
 -1       377-5.76555E+07 1.77961E+06 1.16744E+06 1.99241E+06-1.87296E+05 8.31973E+04
 -1       378-5.72115E+07-9.00776E+05-8.09597E+05 2.18897E+06 9.57299E+04 2.99697E+04
 -1       380-5.37922E+07 1.15897E+06 8.33844E+05 2.04651E+06-1.51401E+05-3.03529E+03
 -1       381-5.20759E+07-5.82380E+05-6.31954E+05 1.96979E+06-8.00009E+04 1.38190E+05
 -1       383-4.95575E+07 1.06975E+06 6.19161E+05 2.14677E+06-7.03423E+04 8.06920E+04
 -1       384-4.85321E+07-1.30727E+06-1.18653E+06 2.13528E+06-1.79087E+05 1.22586E+05
 -1       386-4.37723E+07 1.80182E+06 1.17392E+06 1.83510E+06-7.39454E+04 7.63852E+04
 -1       387-4.33962E+07-8.41558E+05-7.78408E+05 1.91829E+06 3.45452E+03 5.24819E+04
 -1       389-4.02616E+07 1.27214E+06 7.96078E+05 1.74005E+06-9.39237E+04-2.17460E+04
 -1       390-3.87643E+07-6.53015E+05-5.43992E+05 1.81068E+06 1.02609E+04 1.34482E+05
 -1       392-3.67086E+07 9.54538E+05 5.54967E+05 1.69225E+06-1.56724E+05 9.02993E+04
 -1       393-3.51807E+07-8.32692E+05-6.56020E+05 1.66403E+06 5.69042E+02 5.11699E+04
 -1       395-3.26512E+07 1.02865E+06 6.61182E+05 1.62731E+06-1.04542E+05 1.39746E+04
 -1       396-3.15704E+07-7.95446E+05-6.34186E+05 1.61634E+06-5.40371E+04 1.08108E+05
 -1       398-2.91967E+07 1.06162E+06 6.35067E+05 1.44826E+06-1.05621E+05 6.52709E+04
 -1       399-2.78739E+07-5.10831E+05-4.36737E+05 1.49611E+06 8.08400E+03 3.51878E+04
 -1       401-2.62190E+07 7.66489E+05 4.42937E+05 1.46582E+06-5.55423E+04 1.16309E+03
 -1       402-2.44451E+07-3.53997E+05-3.30234E+05 1.30623E+06-3.03901E+04 8.37890E+04
 -1       404-2.32768E+07 6.80753E+05 3.30770E+05 1.43236E+06-6.04344E+04 4.50280E+04
 -1       405-2.19054E+07-7.25416E+05-6.32146E+05 1.39885E+06-7.95431E+04 7.78518E+04
 -1       407-1.95208E+07 1.09369E+06 6.29023E+05 1.19260E+06-7.27422E+04 4.13620E+04
 -1       408-1.84785E+07-4.11097E+05-3.28834E+05 1.24992E+06-2.32247E+03 1.15953E+04
 -1       410-1.73411E+07 6.63636E+05 3.34865E+05 1.20700E+06-3.28269E+04-1.46186E+04
 -1       411-1.55288E+07-2.53191E+05-1.98409E+05 1.06127E+06-4.72737E+04 7.49782E+04
 -1       413-1.50124E+07 5.35684E+05 1.93335E+05 1.10598E+06-2.96815E+04 3.74996E+04
 -1       414-1.35339E+07-5.01185E+05-3.94501E+05 1.03633E+06-4.65772E+04 3.92825E+04
 -1       416-1.21616E+07 7.58145E+05 3.95062E+05 9.64249E+05-4.57315E+04 1.85332E+04
 -1       417-1.11179E+07-4.59880E+05-3.07357E+05 9.55595E+05-1.57887E+04 2.73674E+04
 -1       419-1.01788E+07 6.68061E+05 3.12891E+05 8.53275E+05-5.71837E+04-6.34253E+03
 -1       420-8.84231E+06-3.11260E+05-1.49797E+05 8.26842E+05-1.71055E+04 3.06807E+04
 -1       422-8.59330E+06 4.37154E+05 1.49458E+05 8.02926E+05-3.70268E+04 1.97514E+04
 -1       423-7.42786E+06-4.44247E+05-2.83181E+05 7.77763E+05-4.94565E+04 4.15475E+04
 -1       425-6.60037E+06 6.07812E+05 2.80791E+05 6.44116E+05-3.09641E+04 1.92409E+04
 -1       426-5.49210E+06-7.03000E+05-3.31390E+05 5.33910E+05-2.96512E+04 1.62999E+04
 -1       428-4.65530E+06 6.69702E+05 3.31523E+05 7.04139E+05-6.45837E+03 2.21707E+03
 -1       429-3.10396E+06 6.53524E+05 3.43150E+05 7.09602E+05-7.31997E+04-2.18367E+04
 -1       431-3.94854E+06-8.06806E+05-3.48213E+05 3.41162E+05-1.11393E+05-3.93030E+04
 -1       432-2.96605E+06-1.39941E+05-1.09988E+05 2.01760E+05-1.67570E+03 1.21442E+04
 -1       434-2.44578E+06 8.29577E+04 1.12776E+05 6.71736E+05-2.72136E+03 4.30432E+04
 -1       435-1.88855E+06-6.37992E+05-2.37102E+05 4.63176E+05-8.51599E+04 3.10148E+03
 -1       437-1.54823E+06 5.95161E+05 2.35026E+05 2.54878E+05-6.56974E+04-1.16308E+04
 -1       438-1.03141E+06-2.64602E+05-6.43318E+04 2.70406E+05-1.75642E+04 6.76746E+03
 -1       440-1.12938E+06 2.57264E+05 6.29027E+04 2.77106E+05 4.41503E+03-3.53731E+03
 -1       441-8.80967E+05-8.94349E+05-3.56707E+05 2.12694E+05-1.00798E+05 2.19108E+04
 -1       443-2.93985E+05 8.92235E+05 3.55373E+05 2.35405E+05-8.38119E+04 2.07829E+04
 -1       444-5.11718E+05-8.04007E+05-3.30573E+05 1.70140E+05-3.88230E+04 6.79498E+03
 -1       446 1.35687E+05 7.50227E+05 3.29948E+05 5.81747E+04-2.59499E+04 2.38420E+03
 -1       447-8.77301E+07-6.73552E+06 2.44415E+05-1.34756E+06-8.20068E+04-2.72563E+05
 -1       449-8.72567E+07-6.38482E+06 4.91738E+05 1.04154E+05 4.08696E+05-6.13356E+05
 -1       450-8.69154E+07-1.62653E+06-3.20319E+06 6.65147E+04 6.40199E+05-2.06812E+07
 -1       452-8.70633E+07-1.93025E+06-4.06928E+06 2.21086E+04 1.36301E+04-2.00838E+07
 -1       461-8.17837E+07-8.90880E+05-4.49964E+05 2.46547E+05-2.51405E+05 2.72515E+05
 -1       463-7.93959E+07 9.84250E+04 5.62819E+05 1.54315E+05-9.73338E+04 3.52414E+05
 -1       464-6.19489E+07-1.48513E+05-1.07786E+06 3.98137E+04 1.16315E+05-2.02548E+07
 -1       466-6.18487E+07-5.63658E+04-8.71152E+05-5.81897E+04-2.97341E+05-2.01018E+07
 -1       475-7.58250E+07-6.17726E+05 2.04110E+05 6.79299E+05-5.13223E+04 9.88061E+04
 -1       477-7.38801E+07 9.95753E+05 1.27150E+06-3.45077E+05 1.11034E+05-1.48568E+04
 -1       478-7.53488E+07-3.07562E+06 2.50681E+06 4.72221E+04 3.83306E+05-1.82402E+07
 -1       480-7.57599E+07-3.34834E+06 2.00802E+06-7.87513E+03-8.64617E+04-1.79000E+07
 -1       489-7.03808E+07-8.79315E+05-6.74243E+05 5.39187E+04-6.44612E+04 9.55534E+04
 -1       491-6.83794E+07 7.30223E+05 4.08694E+05 5.19322E+04-4.12645E+04 9.19295E+04
 -1       492-5.71963E+07 3.52800E+05 3.27653E+06 2.08477E+04 1.13797E+05-1.93271E+07
 -1       494-5.71229E+07 4.36920E+05 3.48343E+06 8.11636E+03-1.09239E+05-1.90500E+07
 -1       503-6.45806E+07-6.15946E+05-8.29627E+04 7.73210E+04 1.44900E+05 4.51180E+04
 -1       505-6.26839E+07 7.48212E+05 8.94905E+05-5.82451E+04 3.37532E+04 7.21232E+04
 -1       506-5.45077E+07-1.11456E+06-1.76690E+06 1.92924E+04 3.23451E+05-1.96894E+07
 -1       508-5.45820E+07-1.16853E+06-1.87289E+06-2.19973E+04 1.20884E+05-1.94392E+07
 -1       517-5.94135E+07-3.02088E+05-2.63772E+04-7.63109E+04 1.90195E+04 6.14371E+04
 -1       519-5.81768E+07 3.45506E+05 5.38907E+05 7.03692E+04 1.43588E+05 3.58869E+04
 -1       520-4.52032E+07-4.58533E+05-2.49672E+06 6.33037E+03 3.07109E+05-1.69951E+07
 -1       522-4.54779E+07-6.83531E+05-2.97254E+06-1.93164E+03 7.44454E+03-1.68467E+07
 -1       531-5.48373E+07-3.71903E+05 7.87278E+04 1.24055E+04-2.98860E+04 9.44336E+04
 -1       533-5.39567E+07 5.01375E+05 6.05079E+05 4.31525E+04 1.54172E+05 4.25920E+03
 -1       534-5.41118E+07-1.39673E+06 2.97223E+06 7.01084E+04 4.13775E+05-1.56285E+07
 -1       536-5.42981E+07-1.59793E+06 2.48724E+06-4.02077E+04 1.03429E+05-1.54290E+07
 -1       545-5.04994E+07-5.75022E+05-4.17541E+05 5.08927E+04 4.44494E+04 1.24435E+05
 -1       547-4.88607E+07 5.44279E+05 4.09579E+05-1.27484E+05-5.55874E+04 1.45279E+05
 -1       548-4.13172E+07 1.93742E+05 1.78880E+06-9.42984E+03 7.34923E+04-1.58937E+07
 -1       550-4.16694E+07-1.02105E+05 1.15449E+06 5.33873E+03-3.56748E+03-1.58421E+07
 -1       559-4.57600E+07-4.80091E+05-1.99249E+05 1.53526E+04 1.09017E+05 4.47125E+04
 -1       561-4.43193E+07 4.93512E+05 5.24820E+05-4.41925E+04 3.56507E+04 5.55846E+04
 -1       562-3.40050E+07-1.84505E+05-2.66399E+06-2.46791E+03 2.41901E+05-1.45587E+07
 -1       564-3.43273E+07-5.18013E+05-3.45392E+06 3.26095E+03 5.07400E+04-1.44351E+07
 -1       573-4.11533E+07-3.63553E+05 6.86117E+04-3.74762E+04 1.47158E+04 4.37519E+04
 -1       575-4.03389E+07 4.43075E+05 5.54959E+05 1.66580E+04 1.19474E+05 1.85931E+04
 -1       576-3.45543E+07-6.67984E+05-1.39296E+06 6.85638E+04 2.35967E+05-1.24214E+07
 -1       578-3.50555E+07-1.14130E+06-2.47025E+06-4.86435E+04 7.12224E+04-1.22035E+07
 -1       587-3.71444E+07-2.57683E+05 2.20995E+05-2.00805E+04-1.14942E+04 9.48696E+04
 -1       589-3.62998E+07 3.95029E+05 6.70252E+05 2.98551E+04 8.96571E+04 6.68097E+04
 -1       590-3.09905E+07-1.12086E+06 1.52482E+05-9.33358E+03 2.56588E+05-1.19623E+07
 -1       592-3.13442E+07-1.43746E+06-5.49757E+05 2.14395E+04-1.56985E+04-1.18055E+07
 -1       601-3.35122E+07-2.73978E+05 1.01991E+05 2.23958E+04-1.80056E+03 7.41823E+04
 -1       603-3.25945E+07 3.89761E+05 5.76450E+05-7.17426E+04 4.61981E+04 5.59137E+04
 -1       604-2.78743E+07-8.21590E+05-9.38810E+04 4.09368E+04 1.17047E+05-1.09247E+07
 -1       606-2.81169E+07-1.10836E+06-8.07618E+05-3.30729E+04-2.86292E+04-1.07625E+07
 -1       615-2.99553E+07-2.03107E+05 4.16759E+04-5.39654E+04 1.52215E+04 4.24917E+04
 -1       617-2.93588E+07 2.42312E+05 3.54247E+05 4.04927E+04 3.31335E+04 3.45272E+04
 -1       618-2.42033E+07-4.29400E+05 1.99461E+06 4.72309E+03 1.36937E+05-1.11561E+07
 -1       620-2.45427E+07-7.02116E+05 1.42458E+06 1.25324E+04-5.03441E+04-1.10653E+07
 -1       629-2.66463E+07-2.40355E+05 3.98989E+03-7.27888E+03 1.94202E+04 5.55138E+04
 -1       631-2.62199E+07 2.62353E+05 2.82835E+05 8.74495E+03 6.32756E+04 2.70951E+04
 -1       632-2.61722E+07-5.42587E+05 1.69374E+06 1.03257E+04 2.33236E+05-1.07780E+07
 -1       634-2.62906E+07-7.06885E+05 1.26420E+06-2.34304E+04 1.02067E+05-1.08784E+07
 -1       643-2.36688E+07-3.51497E+05-1.61178E+05 1.64203E+03 1.39001E+04 8.68776E+04
 -1       645-2.27572E+07 3.89271E+05 3.34500E+05-1.06500E+05 9.74001E+03 7.76826E+04
 -1       646-1.94131E+07-1.48479E+05 1.48540E+06 1.79877E+04 1.30299E+05-1.06905E+07
 -1       648-1.96138E+07-3.36979E+05 1.05756E+06-1.32570E+04 1.92165E+04-1.07220E+07
 -1       657-2.04534E+07-2.76844E+05-1.31597E+05-4.10840E+04 5.68418E+04 1.94326E+04
 -1       659-1.98647E+07 2.49004E+05 2.02759E+05-1.00988E+04 4.06164E+04 1.37235E+04
 -1       660-1.47322E+07 5.11701E+04 2.28612E+05 2.70099E+03 1.31270E+05-1.00262E+07
 -1       662-1.49981E+07-2.04114E+05-3.56715E+05 4.74951E+03 4.13389E+04-9.95648E+06
 -1       671-1.75326E+07-2.25562E+05-4.80460E+04-3.51786E+04 4.43378E+04 3.19614E+04
 -1       673-1.72807E+07 2.09767E+05 1.58284E+05-2.10119E+02 6.97558E+04 2.87823E+03
 -1       674-1.71729E+07-1.11505E+05 8.59931E+05 1.54676E+04 2.43260E+05-9.17586E+06
 -1       676-1.74198E+07-3.75381E+05 2.27105E+05-1.62446E+04 1.97949E+05-9.21365E+06
 -1       685-1.50302E+07-2.56386E+05-1.38717E+05-5.09055E+04 3.30400E+04 4.74171E+04
 -1       687-1.45664E+07 2.46672E+05 1.51220E+05-7.11947E+04-1.13987E+04 5.88456E+04
 -1       688-1.23714E+07 1.11619E+05 1.10764E+06 1.64665E+04 7.67989E+04-8.44695E+06
 -1       690-1.26106E+07-1.26433E+05 5.53176E+05-1.32013E+04 3.00444E+04-8.45765E+06
 -1       699-1.26639E+07-2.97692E+05-5.97695E+04-3.10700E+03 4.92039E+04 3.52748E+04
 -1       701-1.20854E+07 3.32201E+05 3.02791E+05-8.50593E+04 5.63460E+04 2.03174E+04
 -1       702-9.24290E+06-1.67238E+05 9.24848E+04 3.79520E+03 1.64313E+05-7.65293E+06
 -1       704-9.42706E+06-3.62346E+05-3.73901E+05 8.50329E+02 8.91567E+04-7.56148E+06
 -1       713-1.03113E+07-1.60365E+05-1.63629E+04-6.32177E+04 1.61317E+04 4.21432E+03
 -1       715-1.01857E+07 1.46706E+05 1.13517E+05-1.28868E+04 4.24733E+04-7.95251E+03
 -1       716-8.31443E+06-1.68228E+04 7.39700E+05 1.79435E+04 7.00260E+04-6.58313E+06
 -1       718-8.57710E+06-2.63613E+05 1.79586E+05-4.46865E+03 1.74055E+04-6.50463E+06
 -1       727-8.53464E+06-2.04807E+05-3.04414E+04-4.00245E+04 2.89173E+04 3.63661E+04
 -1       729-8.25341E+06 2.24705E+05 1.82840E+05-4.63987E+04 2.83918E+04 2.34367E+04
 -1       730-8.07538E+06-2.54019E+05 1.26808E+06 1.14482E+04 1.84427E+05-5.97567E+06
 -1       732-8.20525E+06-3.94158E+05 9.30704E+05-1.18421E+04 1.32484E+05-5.94233E+06
 -1       741-6.70126E+06-1.58102E+05-6.82982E+04-7.83887E+04 4.03643E+04 8.35938E+03
 -1       743-6.57862E+06 1.21802E+05 5.24462E+04-6.03195E+04 1.66682E+04 7.90361E+03
 -1       744-4.62865E+06 1.26869E+05 8.21750E+05 4.44756E+03 4.55533E+04-5.50843E+06
 -1       746-4.82730E+06-8.50112E+04 3.14075E+05-2.10524E+03 2.89369E+04-5.47016E+06
 -1       755-5.17803E+06-6.28040E+04 2.76060E+04-1.09952E+05 4.02238E+04 1.89941E+04
 -1       757-5.10300E+06 1.37421E+05 1.10186E+05-2.01734E+05 3.06082E+04 1.63486E+04
 -1       758-3.86831E+06-6.01205E+04 7.25120E+05 7.24565E+03 9.27053E+04-4.54414E+06
 -1       760-4.09335E+06-2.70741E+05 2.48019E+05-6.52372E+02 6.63705E+04-4.44923E+06
 -1       769-4.22976E+06-6.42373E+05-2.53691E+05-4.48664E+04 5.51029E+04 2.28650E+04
 -1       771-3.58151E+06 7.74465E+05 3.65893E+05 1.83907E+04 5.36416E+04 8.25909E+03
 -1       772-2.84849E+06-7.79794E+04 7.94310E+05 6.92763E+03 8.28376E+04-3.98062E+06
 -1       774-2.99899E+06-2.22972E+05 4.61479E+05-1.71825E+03 7.81574E+04-3.92299E+06
 -1       783-2.87262E+06-5.80836E+05-2.02693E+05 4.38646E+04 4.84316E+03 1.93141E+04
 -1       785-2.47723E+06 6.32312E+05 2.79919E+05 3.09414E+04 4.03744E+03 8.00366E+03
 -1       786-1.91087E+06-6.94545E+04 7.41578E+05 4.78708E+03 4.29833E+04-3.27341E+06
 -1       788-2.00424E+06-1.85959E+05 4.46575E+05-1.82461E+03 3.40632E+04-3.22560E+06
 -1       797-1.66048E+06 1.85714E+05 1.00121E+05-5.84112E+04 5.91920E+04 1.71772E+03
 -1       799-1.82959E+06-1.61430E+05-5.47702E+04-1.71873E+05 3.48562E+04 2.49649E+03
 -1       800-1.06251E+06 1.08224E+04 8.59465E+05 3.64585E+03 4.22004E+04-2.60114E+06
 -1       802-1.18916E+06-1.13507E+05 5.71658E+05 2.49502E+02 3.18525E+04-2.52307E+06
 -1       811-1.25931E+06-4.97340E+05-2.13195E+05 5.35953E+04-2.26940E+03 9.52892E+03
 -1       813-8.20435E+05 5.07542E+05 2.19935E+05-2.05365E+04-1.47182E+04 7.13673E+03
 -1       814-5.10783E+05 4.72777E+04 7.94888E+05 4.04848E+03-2.08591E+03-1.90167E+06
 -1       816-6.25543E+05-6.28823E+04 5.42441E+05 1.10495E+03-3.13042E+03-1.84723E+06
 -1       825-5.14299E+05-1.39023E+05-4.63252E+04-1.28329E+04 4.56323E+04-5.05337E+02
 -1       827-4.47594E+05 1.18928E+05 5.10775E+04-5.18778E+04 3.42074E+04-2.64564E+03
 -1       828-2.03804E+05 6.54866E+04 6.49710E+05-3.16524E+03 1.16211E+05-1.36463E+06
 -1       830-3.45075E+05-8.33299E+04 2.94919E+05-3.30667E+03 1.12034E+05-1.37722E+06
 -1       839-1.14738E+05 1.49072E+05 6.00317E+04-9.13999E+04 2.29368E+04-1.79508E+03
 -1       841-3.02715E+05-1.80236E+05-9.51591E+04-5.72589E+04 1.70615E+04-1.29461E+03
 -1       842 8.45988E+04 8.20492E+04 7.58704E+05 6.64055E+03 2.61617E+04-8.79978E+05
 -1       844 2.67471E+04 1.92540E+04 6.07228E+05 2.83739E+03 1.95891E+04-8.66543E+05
 -1       853-8.72128E+07-3.43946E+06-7.99413E+05-1.88780E+06 1.87203E+05-9.28912E+04
 -1       855-8.42997E+07-6.98774E+05 8.95154E+05-5.15094E+06-4.43656E+05 4.79337E+05
 -1       856-7.48703E+07 1.32883E+06 1.55619E+06-3.13421E+06 1.28794E+05-1.30987E+05
 -1       858-8.20398E+07-1.94606E+06-1.57604E+06-1.28275E+06 2.82561E+05-3.53037E+05
 -1       859-7.41515E+07-8.84359E+05-3.33402E+05-2.06173E+06 1.81755E+05 8.21054E+04
 -1       861-7.27879E+07 9.03131E+04 3.67262E+05-2.43748E+06-1.11702E+05 3.20112E+05
 -1       862-6.63659E+07 8.14159E+05 8.59243E+05-2.51597E+06 1.01962E+05 6.44151E+04
 -1       864-6.96000E+07-1.77591E+06-8.87008E+05-2.03138E+06 2.60938E+05-7.35440E+04
 -1       865-6.22260E+07-2.73060E+05 1.79789E+05-2.03006E+06 4.23071E+04 1.07673E+05
 -1       867-6.30714E+07-6.06123E+05-1.73703E+05-2.28418E+06 1.09151E+05 1.21342E+05
 -1       868-5.69235E+07 5.04832E+05 6.36897E+05-2.16602E+06 2.07683E+05-3.54439E+04
 -1       870-5.93732E+07-1.20620E+06-6.11377E+05-1.87697E+06 5.04302E+04 6.59115E+04
 -1       871-5.33133E+07-2.20458E+05 9.88470E+04-1.93716E+06 1.11958E+05 6.51311E+04
 -1       873-5.37140E+07-4.71597E+05-9.69328E+04-2.21890E+06-1.75683E+04 1.23725E+05
 -1       874-4.82804E+07-9.79155E+04 2.26232E+05-1.99762E+06 5.69425E+03 1.47547E+05
 -1       876-4.92386E+07-7.25112E+05-2.48854E+05-1.96072E+06 1.86862E+05 5.32578E+04
 -1       877-4.30201E+07 4.96160E+05 6.74101E+05-2.03870E+06 1.36241E+05-1.83378E+04
 -1       879-4.56257E+07-1.35845E+06-6.63841E+05-1.59488E+06 1.41607E+05 2.56699E+04
 -1       880-4.01249E+07-3.02995E+05 5.37098E+04-1.54290E+06 8.24551E+04 8.77353E+04
 -1       882-4.02093E+07-5.37102E+05-4.20103E+04-1.89538E+06 5.85814E+03 1.22425E+05
 -1       883-3.55575E+07 1.51692E+05 3.79240E+05-1.72620E+06 1.11724E+05 1.59355E+04
 -1       885-3.70309E+07-8.79834E+05-3.72273E+05-1.52678E+06 5.31684E+04 4.36515E+04
 -1       886-3.24942E+07-1.76896E+05 1.00229E+05-1.50631E+06 5.63295E+04 8.51819E+04
 -1       888-3.28653E+07-4.72627E+05-9.98084E+04-1.59858E+06 4.83067E+04 8.85212E+04
 -1       889-2.86683E+07 1.65467E+05 3.26306E+05-1.49073E+06 8.00571E+04 1.47719E+04
 -1       891-2.98997E+07-7.65901E+05-3.22522E+05-1.36904E+06 6.71692E+04 3.51371E+04
 -1       892-2.59540E+07-1.73031E+05 6.01526E+04-1.32833E+06 5.50820E+04 4.53397E+04
 -1       894-2.61473E+07-3.71023E+05-5.74000E+04-1.46684E+06 1.40484E+04 7.80046E+04
 -1       895-2.25464E+07-5.95552E+04 1.36531E+05-1.36534E+06 4.49925E+04 7.08978E+04
 -1       897-2.30292E+07-5.05655E+05-1.41984E+05-1.34813E+06 7.97705E+04 5.63917E+04
 -1       898-1.91944E+07 2.80966E+05 3.65736E+05-1.30871E+06 8.55290E+04-1.75393E+04
 -1       900-2.05305E+07-8.08539E+05-3.62043E+05-1.09493E+06 7.33274E+04 1.61446E+04
 -1       901-1.71779E+07-2.26569E+05-1.72252E+04-1.02529E+06 2.75101E+04 4.68991E+04
 -1       903-1.70529E+07-2.44001E+05 1.49810E+04-1.24606E+06 1.25767E+04 6.06627E+04
 -1       904-1.43655E+07-2.95298E+04 1.13113E+05-1.07883E+06 2.29427E+04 4.57911E+04
 -1       906-1.47107E+07-4.56699E+05-1.18399E+05-1.04315E+06 8.28129E+04 2.37247E+04
 -1       907-1.17506E+07 1.72486E+05 2.52303E+05-1.02836E+06 7.94863E+04-1.47216E+04
 -1       909-1.26113E+07-6.29602E+05-2.46694E+05-8.66496E+05 4.62161E+04 2.20951E+04
 -1       910-1.00678E+07-5.69514E+04 4.90832E+04-8.08992E+05 3.65029E+04 2.01774E+04
 -1       912-1.01508E+07-3.00408E+05-4.89013E+04-8.86025E+05 2.45177E+04 2.95783E+04
 -1       913-8.20674E+06-9.40496E+02 6.32895E+04-7.71825E+05 3.09153E+04 2.36196E+04
 -1       915-8.29900E+06-3.39621E+05-6.59971E+04-8.11040E+05 3.72167E+04 2.68135E+04
 -1       916-6.27285E+06 7.67168E+03 1.06978E+05-7.27196E+05 2.78447E+04-2.73291E+03
 -1       918-6.64280E+06-3.39838E+05-1.08267E+05-6.65268E+05 4.60681E+04 2.06495E+03
 -1       919-4.97046E+06 1.15097E+04 5.42054E+04-5.73903E+05 4.06980E+04 3.25488E+03
 -1       921-5.03588E+06-2.84191E+05-5.42523E+04-5.74440E+05 2.45197E+04 2.39169E+04
 -1       922-3.61518E+06 4.90267E+04 7.70480E+04-5.23774E+05 1.60139E+04 4.56870E+03
 -1       924-3.80778E+06-2.89415E+05-8.21588E+04-4.83902E+05 5.17987E+04-9.57016E+03
 -1       925-2.53575E+06 1.84760E+04 5.31358E+04-4.45840E+05 3.31015E+04-5.95306E+03
 -1       927-2.64752E+06-2.22413E+05-5.27589E+04-4.03839E+05 3.23305E+04 1.11354E+04
 -1       928-1.66690E+06 1.34517E+05 8.07862E+04-3.73103E+05 3.62223E+04-1.38923E+03
 -1       930-1.76342E+06-3.15775E+05-8.32410E+04-3.15958E+05 4.57107E+04-2.90091E+03
 -1       931-9.68689E+05-6.36507E+04 1.23888E+04-2.35964E+05 2.25736E+04 1.82335E+02
 -1       933-1.03514E+06-8.54248E+04-1.40739E+04-2.56521E+05 3.74232E+04 8.10327E+02
 -1       934-2.62888E+05 5.39423E+05 2.46746E+05-3.24912E+05 7.75474E+04-1.84380E+04
 -1       936-7.80544E+05-5.89821E+05-2.47329E+05-4.11626E+04 8.24331E+04-1.64431E+04
 -1       937-3.54898E+05 3.08940E+05 8.00537E+04-1.27695E+05 7.34578E+03 7.79375E+03
 -1       939-2.64740E+05-3.15214E+05-8.01429E+04-1.56982E+05 1.52090E+04 8.01818E+03
 -1       940-4.22288E+07-3.55198E+05-1.27710E+07-2.33404E+05 4.12016E+05-2.29089E+07
 -1       942-4.06236E+07 3.32624E+05-1.20831E+07-4.47236E+05 9.49052E+04-2.28602E+07
 -1       943-5.21424E+05-2.42905E+05-2.07469E+05-7.55105E+04 2.35796E+05-1.70911E+07
 -1       945 6.16847E+05 2.39050E+05 2.60744E+05-9.94764E+04-2.04875E+05-1.70907E+07
 -1       946 4.08364E+07-3.40202E+05 1.21531E+07-6.11330E+05 2.68183E+05-2.28871E+07
 -1       948 4.24908E+07 3.68945E+05 1.28621E+07-3.98334E+05-4.70087E+04-2.28659E+07
 -1       949 8.69904E+07 1.31369E+06 4.25303E+06 4.88851E+04-2.62887E+05-1.99163E+07
 -1       951 8.67223E+07 8.46389E+05 2.96549E+06 2.22962E+04-8.60395E+05-2.05342E+07
 -1       952 8.77625E+07 6.94377E+06-5.17746E+04-1.37339E+06 3.14015E+03-3.94727E+05
 -1       954 8.74612E+07 6.24855E+06-3.50878E+05-4.94677E+03-4.11346E+05-6.98190E+05
 -1       963 6.26467E+07 2.54691E+05 4.30941E+06-7.73008E+04 1.09114E+05-1.98554E+07
 -1       965 6.25086E+07 8.71051E+04 3.88973E+06 4.53483E+04-2.87019E+05-2.00983E+07
 -1       966 8.20523E+07 1.46961E+06 7.68197E+05 4.58945E+05 3.22091E+05 3.16596E+05
 -1       968 7.86815E+07-7.76222E+05-9.17186E+05-2.35722E+05-4.97618E+04 2.53132E+05
 -1       977 6.23165E+07 1.73608E+06-2.69922E+05 3.28483E+02-2.10074E+05-1.64053E+07
 -1       979 6.16258E+07 1.08194E+06-1.75822E+06 4.60101E+04-4.99803E+05-1.66210E+07
 -1       980 7.49028E+07 9.61466E+05 9.03099E+04 1.76263E+04-1.91389E+05-2.02671E+05
 -1       982 7.33149E+07-9.92203E+05-9.72971E+05-5.60133E+05-5.29055E+04-1.15836E+05
 -1       991 6.91369E+07 1.50595E+06-3.31000E+06-1.42275E+04 1.04597E+05-1.71765E+07
 -1       993 6.89983E+07 1.26672E+06-3.96809E+06-3.87778E+04-4.45315E+05-1.69753E+07
 -1       994 6.86699E+07 1.59851E+05-3.89856E+05 4.63713E+04 1.62804E+04 8.02223E+04
 -1       996 6.91257E+07 3.03945E+05-2.09574E+05-1.88629E+05 4.78064E+03-4.20262E+04
 -1      1005 4.85566E+07 7.13456E+05 1.65335E+06-4.11873E+04 2.20372E+05-1.66095E+07
 -1      1007 4.82330E+07 4.35644E+05 1.05141E+06 4.59017E+04-1.36678E+05-1.65976E+07
 -1      1008 6.28252E+07-4.80434E+05-6.44360E+05 1.05066E+03 4.49828E+04 1.68614E+04
 -1      1010 6.40892E+07 8.22067E+05 1.26042E+05-7.13758E+04 4.67281E+04-1.44879E+04
 -1      1019 4.91378E+07 9.01454E+05-1.73894E+06 3.25797E+04 1.03759E+05-1.61105E+07
 -1      1021 4.90435E+07 7.69384E+05-2.08474E+06-2.84902E+04-2.57908E+05-1.59922E+07
 -1      1022 5.67411E+07-4.44412E+05-9.41318E+05 1.33601E+04-1.62093E+04-2.05084E+05
 -1      1024 5.96506E+07 9.36715E+05 3.45551E+05-5.51192E+04-1.75186E+04-5.42460E+04
 -1      1033 5.40532E+07 2.05343E+05-1.00949E+06-4.76903E+04 1.28749E+05-1.58783E+07
 -1      1035 5.39129E+07 7.66928E+04-1.29792E+06-4.24439E+03-1.58970E+05-1.56012E+07
 -1      1036 5.39493E+07 6.98250E+05 1.80569E+05 1.88522E+04 2.46273E+04 6.18947E+04
 -1      1038 5.34142E+07-6.05100E+04-2.07346E+05-8.09013E+04 2.50951E+04-4.18927E+04
 -1      1047 3.72658E+07 1.37253E+05 1.24240E+06-1.58945E+04 7.19988E+04-1.51879E+07
 -1      1049 3.71196E+07 5.96699E+03 9.51060E+05 1.99033E+04-1.65581E+05-1.50527E+07
 -1      1050 4.78415E+07-5.59564E+05-5.52413E+05 1.16794E+04-4.46975E+03-4.23931E+04
 -1      1052 4.97651E+07 1.00125E+06 4.93250E+05-4.72380E+04-4.67483E+03-6.24827E+04
 -1      1061 3.68723E+07-2.55910E+05-6.76954E+05-2.72609E+04-3.64963E+04-1.31821E+07
 -1      1063 3.68064E+07-3.39041E+05-8.88154E+05 2.38071E+04-1.47157E+05-1.31149E+07
 -1      1064 4.38497E+07 1.59986E+04-1.47678E+05 6.19158E+03-1.00499E+04-1.90623E+05
 -1      1066 4.48839E+07 5.72102E+05 3.28444E+05-8.04400E+04-9.80797E+03 4.98825E+04
 -1      1075 4.05410E+07 7.41007E+05-2.56856E+06-2.44316E+04 1.56142E+05-1.32299E+07
 -1      1077 4.04603E+07 6.56316E+05-2.77013E+06 6.99848E+03-2.66313E+05-1.31241E+07
 -1      1078 4.01865E+07 1.91833E+05-2.61527E+05-3.40980E+04 6.96360E+03 5.58290E+04
 -1      1080 4.09723E+07 2.50363E+05-7.28831E+03-1.13382E+05 8.11179E+03-1.64206E+05
 -1      1089 3.06228E+07-2.98092E+05-1.89059E+06-1.41023E+04 1.14477E+05-1.37290E+07
 -1      1091 3.03557E+07-4.92249E+05-2.27068E+06 4.82055E+03-9.30499E+03-1.36277E+07
 -1      1092 3.63791E+07-1.10945E+05-3.53471E+04-2.34708E+04 2.29141E+04-3.84466E+04
 -1      1094 3.68192E+07 5.81817E+05 3.04374E+05-4.88896E+04 2.32682E+04 1.94818E+04
 -1      1103 2.50610E+07-2.15900E+05 1.04028E+06 1.87952E+03 7.43353E+04-1.26263E+07
 -1      1105 2.50184E+07-2.87454E+05 8.44358E+05 1.13937E+04-3.32680E+04-1.25821E+07
 -1      1106 3.19853E+07-1.82283E+05-2.71488E+05-5.75012E+03 1.93396E+04-1.52420E+05
 -1      1108 3.36433E+07 7.13589E+05 4.94061E+05-4.78195E+04 2.11582E+04-8.19439E+03
 -1      1117 2.93806E+07-2.43502E+04-1.41833E+06-4.04461E+04 7.67004E+04-1.18596E+07
 -1      1119 2.92626E+07-1.02260E+05-1.56014E+06-3.60238E+03-1.22310E+05-1.16945E+07
 -1      1120 2.95985E+07 2.98691E+05 1.20077E+05-1.84426E+02 1.16339E+04 6.45532E+04
 -1      1122 2.92178E+07 9.77071E+04-5.36952E+04-6.68772E+04 1.33942E+04-8.53059E+04
 -1      1131 1.96853E+07-3.32574E+05-5.85230E+05-4.14428E+03 6.54116E+04-1.13712E+07
 -1      1133 1.96081E+07-3.98287E+05-7.27116E+05 2.49615E+04-3.91259E+04-1.12879E+07
 -1      1134 2.50352E+07-3.13989E+05-2.54846E+05 2.88184E+03 1.65395E+04-1.43540E+05
 -1      1136 2.67725E+07 7.51270E+05 5.85334E+05-3.71346E+04 1.79718E+04-1.94406E+04
 -1      1145 2.28272E+07 4.04962E+05-8.45492E+05-3.36952E+04 1.62251E+04-1.05100E+07
 -1      1147 2.27588E+07 3.51079E+05-9.56895E+05-2.39540E+04-1.20693E+05-1.02714E+07
 -1      1148 2.29531E+07 2.63936E+05 3.09795E+04 8.42497E+03 2.81885E+03 3.29304E+04
 -1      1150 2.23855E+07 8.55204E+04-1.92524E+05-5.43371E+04 5.17765E+03-2.33370E+04
 -1      1159 1.45546E+07-4.17062E+05-5.41662E+05-2.66054E+03 4.96492E+04-9.66279E+06
 -1      1161 1.44333E+07-5.13951E+05-7.43368E+05 2.15339E+04-3.91609E+04-9.58738E+06
 -1      1162 1.90961E+07-2.10377E+05-1.05286E+05 9.54428E+03 1.59271E+04-9.12808E+04
 -1      1164 2.04061E+07 6.36321E+05 5.41472E+05-3.79968E+04 1.70737E+04-3.74278E+04
 -1      1173 1.70112E+07 2.52745E+05-1.03980E+06-2.30495E+04 3.60675E+04-8.80692E+06
 -1      1175 1.69790E+07 1.90961E+05-1.21355E+06-8.69133E+03-6.87460E+04-8.69353E+06
 -1      1176 1.70730E+07 1.18262E+05-4.29126E+04-3.90634E+03 9.17403E+03-1.86390E+03
 -1      1178 1.69629E+07 1.96718E+05-5.22763E+04-6.36484E+04 1.17644E+04-2.30215E+04
 -1      1187 1.22485E+07-2.35581E+05-1.04955E+06-4.42105E+03 8.42949E+04-8.68894E+06
 -1      1189 1.19718E+07-4.39095E+05-1.45119E+06 1.24911E+04 9.46835E+03-8.55879E+06
 -1      1190 1.41868E+07-5.70296E+04-4.23714E+04 4.67924E+03 2.36057E+04-5.12338E+04
 -1      1192 1.48243E+07 3.82128E+05 2.80441E+05-2.73099E+04 2.48184E+04-1.65491E+04
 -1      1201 9.38218E+06 1.93665E+05 4.97389E+05-1.34819E+04 1.64525E+04-7.64044E+06
 -1      1203 9.28250E+06 7.73737E+04 2.09368E+05 5.23369E+01-6.81457E+04-7.50924E+06
 -1      1204 1.20429E+07-3.39349E+04-1.18332E+05 2.93442E+04-5.52612E+02-1.11612E+04
 -1      1206 1.21226E+07 2.71631E+05-2.74699E+03-2.11567E+04 1.92118E+03-9.15687E+03
 -1      1215 8.25594E+06 2.66159E+04-7.46296E+05-2.03728E+03-1.48432E+04-6.67475E+06
 -1      1217 8.15098E+06-5.63835E+04-9.18063E+05 1.17722E+04-9.53497E+04-6.60541E+06
 -1      1218 9.71318E+06-7.01382E+04-1.28027E+05 4.33283E+04-2.44481E+03-3.33109E+04
 -1      1220 1.02322E+07 3.22097E+05 1.45369E+05-2.00708E+04-1.22373E+03-3.65544E+04
 -1      1229 8.08390E+06 1.31621E+05-6.71383E+05-1.65284E+04-3.46542E+04-6.14604E+06
 -1      1231 8.02030E+06 4.52481E+04-8.95743E+05 1.60897E+03-9.52178E+04-6.06994E+06
 -1      1232 8.10224E+06 4.47367E+04-3.95382E+04 1.70326E+04-2.33195E+03-1.59665E+04
 -1      1234 8.09350E+06 1.85493E+05 6.95878E+00-4.01722E+04-2.77514E+02-4.11325E+03
 -1      1243 5.45501E+06 1.90781E+03-8.50107E+05-4.68985E+03 5.31605E+04-5.72242E+06
 -1      1245 5.25977E+06-1.49183E+05-1.15856E+06 6.43329E+03-4.62455E+03-5.63824E+06
 -1      1246 6.28341E+06-7.44519E+04-6.50652E+04 1.27300E+04 1.40754E+04-1.75592E+04
 -1      1248 6.53402E+06 2.91085E+05 1.19746E+05-1.42290E+04 1.50185E+04-1.05182E+04
 -1      1257 4.11718E+06 2.14949E+04-3.82889E+05-6.57761E+03 2.12222E+04-5.19562E+06
 -1      1259 3.96183E+06-1.35746E+05-7.51728E+05-9.51251E+02-2.11643E+04-5.06605E+06
 -1      1260 4.79430E+06-4.30979E+04-4.16824E+04 2.83501E+04 6.33583E+03-1.28427E+04
 -1      1262 4.93958E+06 2.32942E+05 8.47093E+04-7.26987E+03 7.49559E+03-1.07217E+04
 -1      1271 3.06961E+06-2.07095E+04-2.46451E+05-4.82735E+03-2.87305E+03-4.38634E+06
 -1      1273 2.95466E+06-1.52077E+05-5.69414E+05 4.20402E+03-2.91906E+04-4.29138E+06
 -1      1274 3.51509E+06-1.86980E+04-1.32160E+04 7.60276E+03 3.55754E+03-1.11700E+04
 -1      1276 3.59658E+06 1.95643E+05 7.55147E+04-2.92006E+04 4.80852E+03-7.22131E+03
 -1      1285 2.12989E+06-3.31443E+04-4.57906E+05-7.12685E+03-2.57489E+04-3.59083E+06
 -1      1287 1.96582E+06-1.68722E+05-7.45788E+05 1.57069E+03-4.53023E+04-3.50150E+06
 -1      1288 2.42077E+06-6.43716E+04-2.72015E+04 2.14131E+04-2.36176E+03-1.01461E+04
 -1      1290 2.55434E+06 2.22360E+05 9.88685E+04-2.39045E+04-1.46398E+03-5.61195E+03
 -1      1299 1.29013E+06-1.61744E+04-4.22769E+05-1.40572E+03-4.59022E+03-2.99050E+06
 -1      1301 1.11225E+06-1.87104E+05-8.14671E+05 3.10441E+03-1.97878E+04-2.91489E+06
 -1      1302 1.59309E+06-4.40164E+04 1.05966E+03 3.10678E+04 1.80760E+03-5.23746E+03
 -1      1304 1.61166E+06 1.69837E+05 7.07594E+04-6.26863E+02 2.39900E+03 7.79880E+01
 -1      1313 6.66128E+05-4.99723E+04-4.71147E+05-3.89479E+03-4.93256E+04-2.23165E+06
 -1      1315 5.64664E+05-1.69729E+05-7.68886E+05 1.16885E+03-6.13919E+04-2.17182E+06
 -1      1316 8.69445E+05-8.56176E+04-1.51599E+04 2.51482E+03-1.50750E+04-7.68061E+03
 -1      1318 9.48282E+05 1.98025E+05 9.35944E+04-1.64573E+04-1.38871E+04-9.13272E+03
 -1      1327 2.92281E+05 1.34177E+04-4.85057E+05-6.28741E+03-3.88861E+04-1.52504E+06
 -1      1329 9.03308E+04-1.57872E+05-8.54084E+05-1.97125E+03-4.41866E+04-1.41964E+06
 -1      1330 3.87209E+05-7.78671E+03-4.44422E+03 3.55998E+04-3.84419E+03-7.98076E+02
 -1      1332 4.76697E+05 9.96327E+04 5.46269E+04-1.71869E+04-3.50190E+03-5.50325E+02
 -1      1341 2.64053E+04 4.81630E+04-4.70312E+05-2.17394E+03-3.39882E+04-7.20230E+05
 -1      1343-1.53528E+05-1.43418E+05-9.28983E+05-1.09139E+03-3.50191E+04-6.98377E+05
 -1      1344 8.49174E+04-4.90082E+05-1.47973E+05 3.37317E+04-1.97019E+04 1.33410E+03
 -1      1346 2.35555E+05 5.61109E+05 2.12563E+05 1.51857E+04-1.85474E+04 3.99884E+03
 -1      1355 3.03314E+04 1.66841E+04 4.89088E+05-8.07011E+02 4.77107E+02-4.10876E+05
 -1      1357 4.16983E+04-1.72067E+04 3.64756E+05 5.53236E+03 3.52744E+03-3.70301E+05
 -1      1358-7.05002E+04-4.20801E+04-1.11369E+05-1.42995E+03-3.44049E+03-4.60142E+05
 -1      1360 1.42370E+05 4.23778E+04-4.27081E+04-2.43950E+03 6.43499E+02-3.35705E+05
 -1      1361-2.06353E+05-7.92942E+04-6.15565E+05-8.53666E+03-1.18040E+04-4.21937E+05
 -1      1363 1.39487E+05 7.91212E+04-4.33348E+05-8.31622E+03-8.75156E+03-2.96526E+05
 -1      1364 8.43895E+07 9.16095E+06-3.54504E+05 3.43271E+06-4.72971E+05-5.90719E+05
 -1      1366 8.45273E+07 1.10980E+07 2.68574E+05 3.18157E+06 4.87792E+05-3.40510E+04
 -1      1367 8.10242E+07-2.79300E+05-1.69471E+05 1.62825E+06-2.94004E+05 2.16255E+05
 -1      1369 8.06863E+07 1.00794E+06 1.15876E+05 1.76180E+06 3.04580E+05 1.27531E+05
 -1      1370 7.91909E+07 9.63645E+05 1.62978E+06 1.74638E+06 3.84848E+04-2.37530E+05
 -1      1372 7.13465E+07-1.92612E+06-1.59074E+06 2.45364E+06 3.80165E+04-2.73018E+05
 -1      1373 7.13848E+07-2.91383E+04 3.89503E+05 1.23616E+06-8.59639E+04-8.28997E+04
 -1      1375 6.91398E+07-4.85126E+05-4.20698E+05 3.05009E+06 1.13615E+05-1.32996E+05
 -1      1376 6.75370E+07 6.73166E+05 9.42334E+05 1.42292E+06-1.07691E+05-4.32794E+04
 -1      1378 6.30887E+07-1.28053E+06-9.78459E+05 2.90595E+06 2.77513E+05-1.23060E+05
 -1      1379 6.24582E+07 8.77455E+05 1.13010E+06 1.56403E+06 1.32431E+04-1.31362E+05
 -1      1381 5.72040E+07-1.35846E+06-1.11712E+06 2.73723E+06 1.25946E+05-1.71509E+05
 -1      1382 5.59053E+07-1.52933E+05 2.18207E+05 1.31420E+06-1.49903E+05-1.61886E+05
 -1      1384 5.43491E+07-1.35602E+05-2.43265E+05 2.85204E+06 6.86859E+04-2.06964E+05
 -1      1385 5.21582E+07 5.91647E+05 7.19810E+05 1.49711E+06 1.58393E+04 1.19943E+04
 -1      1387 4.88913E+07-9.98834E+05-7.37495E+05 2.60485E+06 2.14243E+05-2.93200E+04
 -1      1388 4.75585E+07 5.80823E+05 7.89839E+05 1.35259E+06 6.38633E+04-1.61026E+05
 -1      1390 4.39579E+07-9.78272E+05-7.57950E+05 2.31471E+06-4.43838E+04-2.27757E+05
 -1      1391 4.25836E+07-1.93085E+04 2.22512E+05 1.21891E+06-1.04648E+05-8.22981E+04
 -1      1393 4.11647E+07-2.10940E+05-2.60564E+05 2.20958E+06 1.21318E+05-9.92229E+04
 -1      1394 3.91546E+07 4.46670E+05 5.13927E+05 1.23292E+06-3.07904E+04-3.14334E+04
 -1      1396 3.69743E+07-8.41265E+05-5.26378E+05 2.12919E+06 1.58699E+05-9.86016E+04
 -1      1397 3.57150E+07 6.95857E+05 7.59205E+05 1.29349E+06 1.04485E+05-9.13860E+04
 -1      1399 3.24794E+07-1.02802E+06-7.28713E+05 1.97917E+06-7.74950E+03-1.08772E+05
 -1      1400 3.12409E+07 8.89749E+04 2.32342E+05 1.07722E+06-7.56531E+04-1.17743E+05
 -1      1402 3.00393E+07-3.62275E+05-2.63368E+05 1.99012E+06 5.93470E+04-1.54863E+05
 -1      1403 2.81287E+07 3.05367E+05 4.17848E+05 1.22993E+06 3.17254E+04 2.38014E+04
 -1      1405 2.63277E+07-6.61476E+05-4.12221E+05 1.69858E+06 9.94454E+04-4.12012E+04
 -1      1406 2.44013E+07 2.01564E+05 2.60685E+05 1.06590E+06-3.47669E+04-1.35069E+05
 -1      1408 2.32799E+07-4.25600E+05-2.63960E+05 1.74904E+06 8.59991E+03-1.29698E+05
 -1      1409 2.15851E+07 2.83839E+05 3.21952E+05 1.07403E+06 2.88323E+04 2.29308E+04
 -1      1411 2.02174E+07-5.11550E+05-3.26671E+05 1.49777E+06 7.51477E+04-4.43294E+04
 -1      1412 1.85108E+07 2.07201E+05 2.30019E+05 9.60898E+05-2.23244E+04-9.27444E+04
 -1      1414 1.75612E+07-3.77729E+05-2.30370E+05 1.42890E+06 1.86658E+04-9.36308E+04
 -1      1415 1.59545E+07 2.04075E+05 2.14041E+05 9.05619E+05 1.51884E+04 2.22170E+03
 -1      1417 1.51164E+07-3.97343E+05-2.17565E+05 1.29678E+06 4.78373E+04-4.60922E+04
 -1      1418 1.34783E+07 2.62179E+05 2.30391E+05 8.51924E+05-2.98370E+03-4.75131E+04
 -1      1420 1.26258E+07-4.23882E+05-2.31126E+05 1.23361E+06 3.56741E+04-6.19167E+04
 -1      1421 1.11672E+07 1.74549E+05 1.61481E+05 8.06545E+05-1.95428E+04-1.91272E+04
 -1      1423 1.05158E+07-2.75562E+05-1.68806E+05 1.07840E+06 4.69871E+04-5.00591E+04
 -1      1424 8.92842E+06 8.92798E+04 5.61036E+04 7.21423E+05-1.59336E+04-2.58788E+04
 -1      1426 8.78152E+06-1.39655E+05-5.65581E+04 9.75959E+05 2.53798E+04-4.11489E+04
 -1      1427 7.28476E+06 2.35434E+05 1.35052E+05 6.64934E+05 1.39032E+04 8.78937E+02
 -1      1429 6.92514E+06-3.11041E+05-1.36670E+05 8.36247E+05 3.75230E+04-1.89455E+04
 -1      1430 5.70579E+06 2.62860E+05 1.50001E+05 6.14734E+05 2.94075E+03-1.70134E+04
 -1      1432 5.29388E+06-3.31233E+05-1.51712E+05 7.55730E+05 2.71466E+04-3.31302E+04
 -1      1433 4.16029E+06 1.85587E+05 7.71282E+04 5.13121E+05 3.38694E+03-8.64713E+03
 -1      1435 4.03760E+06-2.08976E+05-7.79704E+04 6.41583E+05 1.93087E+04-2.26099E+04
 -1      1436 2.98723E+06 1.86038E+05 7.33441E+04 4.29970E+05 1.31084E+04-2.88125E+02
 -1      1438 2.89592E+06-2.11571E+05-7.32722E+04 5.14530E+05 1.67552E+04-1.10312E+04
 -1      1439 2.04515E+06 2.16209E+05 8.05347E+04 3.69626E+05 1.47905E+04-4.58654E+03
 -1      1441 1.95341E+06-2.27624E+05-8.00848E+04 4.42614E+05 1.16989E+04-1.45335E+04
 -1      1442 1.23056E+06 2.55047E+05 7.59890E+04 2.93241E+05 1.91421E+04-1.24234E+03
 -1      1444 1.20831E+06-2.29899E+05-7.61317E+04 3.27949E+05 1.77746E+04-8.79463E+03
 -1      1445 6.42123E+05 1.88410E+05 4.76856E+04 2.03835E+05 1.24690E+04 3.60618E+03
 -1      1447 6.84674E+05-1.71115E+05-4.73888E+04 2.21600E+05 5.34503E+03-3.00176E+02
 -1      1448 1.78335E+05 1.92727E+05 3.17973E+04 1.62553E+05 2.63789E+04 1.40900E+03
 -1      1450 2.75726E+05-1.10250E+05-2.99143E+04 1.49943E+05 1.21310E+04 6.46664E+03
 -1      1451 8.75894E+07 3.23472E+06 6.58126E+05-2.10472E+06-2.88842E+05-3.08679E+05
 -1      1453 8.51014E+07 9.32698E+05-7.80524E+05-5.18464E+06 4.52598E+05 3.97519E+05
 -1      1454 7.45376E+07-1.68814E+06-1.75868E+06-3.49898E+06-2.97935E+05-2.98835E+05
 -1      1456 8.23522E+07 2.30307E+06 1.78420E+06-1.15040E+06-2.74226E+05-4.46050E+05
 -1      1457 7.26003E+07-2.07995E+06-1.20845E+06-1.84221E+06-1.52017E+05 7.31283E+04
 -1      1459 7.65421E+07 2.10154E+06 1.22929E+06-2.28916E+06-3.38101E+05 2.39181E+05
 -1      1460 7.30373E+07 1.84432E+06 1.36763E+06-2.09673E+06 3.82971E+04-1.45253E+05
 -1      1462 6.79404E+07-2.25725E+06-1.39271E+06-2.40184E+06-1.62242E+05-1.75684E+05
 -1      1463 6.81474E+07 1.87920E+06 1.41838E+06-1.80805E+06 2.46783E+04-2.20761E+04
 -1      1465 6.27660E+07-2.31863E+06-1.45603E+06-2.86595E+06-3.52014E+05-1.10812E+05
 -1      1466 6.27745E+07 1.51653E+06 1.40243E+06-1.89455E+06-3.04982E+04-1.21279E+05
 -1      1468 5.69295E+07-1.94167E+06-1.38897E+06-2.46406E+06-1.42724E+05-1.60734E+05
 -1      1469 5.62151E+07 5.86527E+05 5.37013E+05-1.57712E+06 8.70851E+04-1.42275E+05
 -1      1471 5.39997E+07-8.62637E+05-5.62438E+05-2.70421E+06-1.31847E+05-1.88569E+05
 -1      1472 5.23772E+07 1.27976E+06 1.01088E+06-1.75296E+06-5.27594E+04 2.61900E+04
 -1      1474 4.85222E+07-1.66262E+06-1.02866E+06-2.41947E+06-2.52817E+05-1.57096E+04
 -1      1475 4.77469E+07 1.21723E+06 1.08104E+06-1.58099E+06-1.06702E+05-1.45083E+05
 -1      1477 4.35170E+07-1.65428E+06-1.04949E+06-2.12990E+06-1.61080E+03-2.13295E+05
 -1      1478 4.26754E+07 6.11544E+05 5.10096E+05-1.46553E+06 6.37671E+04-7.13640E+04
 -1      1480 4.06533E+07-8.95269E+05-5.48711E+05-2.11898E+06-1.67896E+05-8.90640E+04
 -1      1481 3.90159E+07 8.49166E+05 6.81169E+05-1.44600E+06 1.82194E+04-2.67424E+04
 -1      1483 3.64943E+07-1.21316E+06-6.93966E+05-2.03670E+06-1.77807E+05-9.51711E+04
 -1      1484 3.54857E+07 9.92052E+05 8.98136E+05-1.40453E+06-1.22965E+05-7.90145E+04
 -1      1486 3.19754E+07-1.38614E+06-8.68559E+05-1.79430E+06-2.00146E+04-9.75562E+04
 -1      1487 3.10616E+07 5.31970E+05 4.37826E+05-1.21893E+06 4.22565E+04-1.03234E+05
 -1      1489 2.94587E+07-8.90005E+05-4.69620E+05-1.83077E+06-1.03177E+05-1.40302E+05
 -1      1490 2.79233E+07 7.21964E+05 6.10105E+05-1.35541E+06-5.32871E+04 3.41030E+04
 -1      1492 2.57373E+07-1.14365E+06-6.05204E+05-1.50975E+06-1.31327E+05-3.13809E+04
 -1      1493 2.42050E+07 6.09073E+05 4.59115E+05-1.17794E+06 8.11578E+03-1.22636E+05
 -1      1495 2.26787E+07-9.38894E+05-4.63350E+05-1.53726E+06-4.66221E+04-1.17122E+05
 -1      1496 2.13990E+07 7.11622E+05 5.23733E+05-1.18627E+06-5.49964E+04 3.38270E+04
 -1      1498 1.96212E+07-1.02063E+06-5.29057E+05-1.31589E+06-1.11704E+05-3.36377E+04
 -1      1499 1.83093E+07 5.96032E+05 4.23677E+05-1.06990E+06-1.40744E+03-8.24097E+04
 -1      1501 1.69666E+07-8.90055E+05-4.25072E+05-1.23058E+06-5.39556E+04-8.32779E+04
 -1      1502 1.57159E+07 5.54258E+05 3.74223E+05-1.02552E+06-3.33043E+04 1.04937E+04
 -1      1504 1.45626E+07-8.01542E+05-3.78309E+05-1.13674E+06-7.64109E+04-3.75805E+04
 -1      1505 1.32720E+07 6.17062E+05 4.00823E+05-9.15500E+05-1.97164E+04-3.48042E+04
 -1      1507 1.20778E+07-8.66640E+05-4.02562E+05-9.90983E+05-6.92470E+04-4.88573E+04
 -1      1508 1.10831E+07 6.41398E+05 3.84393E+05-8.74712E+05-1.37888E+04-6.48068E+03
 -1      1510 9.96825E+06-8.32871E+05-3.92244E+05-8.58207E+05-8.96146E+04-3.67310E+04
 -1      1511 8.87864E+06 5.15808E+05 2.69208E+05-7.93473E+05-9.79889E+03-1.83828E+04
 -1      1513 8.28225E+06-6.86710E+05-2.70430E+05-7.74455E+05-5.99860E+04-3.30582E+04
 -1      1514 7.18752E+06 5.37152E+05 2.77190E+05-7.57879E+05-2.69310E+04 4.67158E+03
 -1      1516 6.53025E+06-6.60320E+05-2.79159E+05-6.98325E+05-5.77241E+04-1.43649E+04
 -1      1517 5.60596E+06 5.15486E+05 2.70818E+05-6.56827E+05-1.89125E+04-9.23026E+03
 -1      1519 4.95082E+06-6.42451E+05-2.73043E+05-5.77160E+05-4.95422E+04-2.53437E+04
 -1      1520 4.11605E+06 4.69887E+05 2.18201E+05-5.79922E+05-2.40451E+04-1.36282E+02
 -1      1522 3.70781E+06-5.81195E+05-2.19541E+05-4.98897E+05-4.62101E+04-1.35551E+04
 -1      1523 2.97749E+06 5.28397E+05 2.28901E+05-5.23117E+05-3.44973E+04 7.27132E+03
 -1      1525 2.56130E+06-5.82502E+05-2.29180E+05-3.94573E+05-4.33340E+04-2.86256E+03
 -1      1526 2.03536E+06 5.09450E+05 2.15190E+05-4.08963E+05-3.15656E+04 1.19375E+02
 -1      1528 1.66194E+06-5.51317E+05-2.15017E+05-2.96093E+05-3.27918E+04-9.81787E+03
 -1      1529 1.22522E+06 4.54841E+05 1.80635E+05-3.40431E+05-3.03484E+04 3.55071E+03
 -1      1531 9.77592E+05-5.03819E+05-1.81217E+05-2.05935E+05-3.34880E+04-3.37453E+03
 -1      1532 7.12877E+05 5.02562E+05 1.92290E+05-2.65995E+05-3.46581E+04 1.12982E+04
 -1      1534 4.22741E+05-4.88725E+05-1.92120E+05-1.44417E+05-3.04802E+04 8.15171E+03
 -1      1535 3.97862E+05 6.13339E+05 2.44986E+05-8.77308E+04-3.77554E+04 2.07673E+03
 -1      1537-4.58130E+04-5.70447E+05-2.43230E+05-1.14736E+05-2.22458E+04-1.14946E+03
 -1      1538-2.39761E+07 4.62241E+04-1.01605E+06 2.17651E+04 1.06955E+05-1.66436E+07
 -1      1540-2.41019E+07-6.19729E+04-1.25103E+06 3.75348E+03-8.83799E+04-1.66078E+07
 -1      1541 5.54197E+06 3.79938E+04-8.16282E+05 5.31033E+02-2.72332E+03-6.56228E+06
 -1      1543 5.43902E+06-3.97043E+04-9.72320E+05-4.71295E+03 7.71914E+03-6.53084E+06
 -1      1544-1.60632E+06 2.96788E+04 6.85682E+05 4.46963E+03 5.88356E+02-3.81591E+06
 -1      1546-1.65647E+06-2.99123E+04 5.37187E+05-2.02108E+03 8.36254E+02-3.81305E+06
 -1      1547-1.82010E+05 1.41221E+04 5.06324E+05 2.95359E+03-1.65306E+03-1.46657E+06
 -1      1549-2.34198E+05-1.39128E+04 4.65068E+05 1.53905E+02 2.31054E+03-1.44837E+06
 -1      1550 2.34119E+07 6.45473E+04-1.27431E+06-1.24694E+04-2.07137E+04-1.47383E+07
 -1      1552 2.32266E+07-7.73229E+04-1.56190E+06 1.33996E+04 2.91557E+04-1.46999E+07
 -1      1553-1.29031E+07 1.37124E+05 1.84166E+06 3.44320E+03 2.15091E+04-1.30083E+07
 -1      1555-1.32255E+07-1.30966E+05 1.27029E+06-1.45242E+04-2.27519E+04-1.29327E+07
 -1      1556-1.15326E+07 3.46434E+04 7.01374E+05 2.88169E+03 2.65916E+04-9.60098E+06
 -1      1558-1.16828E+07-3.80016E+04 6.09398E+05 1.19316E+04-2.03261E+04-9.54400E+06
 -1      1559-4.25872E+07-8.58252E+04 2.30296E+06-2.89195E+04 1.06142E+04-1.98198E+07
 -1      1561-4.22760E+07 9.41300E+04 2.59197E+06 7.26979E+02-5.33874E+03-1.99736E+07
 -1      1562-2.98310E+07 1.12847E+05-2.70832E+05 1.58201E+04 1.06354E+05-1.73307E+07
 -1      1564-3.00654E+07-1.07878E+05-7.72502E+05-6.44437E+03-1.09030E+05-1.72819E+07
 -1      1565 3.63683E+07 8.85454E+04-1.76065E+06 5.55780E+03 2.74194E+04-1.72554E+07
 -1      1567 3.61288E+07-8.52332E+04-2.10025E+06 5.11611E+03-1.42403E+04-1.73237E+07
 -1      1568 2.07248E+06 1.63265E+04-3.81440E+05 2.17503E+02 4.36797E+02-4.18042E+06
 -1      1570 2.05769E+06-1.66788E+04-4.76666E+05 1.61007E+03-3.05259E+03-4.18563E+06
 -1      1571 4.84065E+05 3.95922E+04-3.73960E+05 1.71616E+03-4.43974E+02-2.08416E+06
 -1      1573 3.92709E+05-4.01061E+04-5.48260E+05 7.25733E+02 3.03414E+03-2.07825E+06
 -1      1574-4.61572E+06 4.40543E+04 8.66446E+05 4.09437E+03 4.07006E+03-6.67397E+06
 -1      1576-4.73423E+06-4.33148E+04 6.93703E+05-5.28734E+02-7.91798E+02-6.64203E+06
 -1      1577-2.52051E+07 1.51927E+04-4.68600E+05 6.15065E+03 1.00519E+05-1.56085E+07
 -1      1579-2.52532E+07-3.37421E+04-5.83720E+05-2.37031E+03-6.22832E+04-1.55666E+07
 -1      1580 1.65152E+07 7.05966E+04-1.50399E+05-3.98095E+04 8.12631E+04-1.32297E+07
 -1      1582 1.63580E+07-7.37709E+04-4.74370E+05 2.57677E+04-7.23489E+04-1.31753E+07
 -1      1583 1.46862E+07 3.56688E+04-2.15848E+05 8.50779E+03 4.93602E+03-1.26839E+07
 -1      1585 1.46338E+07-3.70346E+04-4.05815E+05-3.50368E+03 7.36310E+02-1.26668E+07
 -1      1586 8.01994E+06 7.60391E+04 7.38992E+05-9.09389E+03 3.89505E+04-1.09595E+07
 -1      1588 7.92694E+06-7.52838E+04 3.27546E+05 3.53983E+03-3.28809E+04-1.08847E+07
 -1      1589 6.22074E+06 7.58446E+04 2.98156E+05 3.77823E+03 1.87761E+04-9.16004E+06
 -1      1591 6.02147E+06-7.48706E+04-5.00942E+03 6.17224E+03-2.47352E+04-9.08626E+06
 -1      1592-6.24421E+06 9.08451E+03-6.66008E+04-2.91794E+03 2.47737E+04-1.05938E+07
 -1      1594-6.16734E+06-6.42359E+03-1.95202E+05-1.25298E+04-1.76885E+04-1.05893E+07
 -1      1595-3.99219E+06 4.19101E+04 2.40748E+05-8.46577E+01 2.63619E+04-8.35981E+06
 -1      1597-4.02342E+06-4.06074E+04-3.17195E+03-3.05745E+03-2.46071E+04-8.28637E+06
 -1      1598 4.13855E+07 8.75892E+04-1.29895E+06 1.85686E+04 2.08648E+05-2.17182E+07
 -1      1600 4.10848E+07-9.75417E+04-1.61521E+06 3.16967E+04-1.33851E+05-2.17270E+07
 -1      1601 3.84256E+07 1.43843E+05-8.81810E+05-3.92107E+04 2.70777E+04-2.16946E+07
 -1      1603 3.80402E+07-1.36411E+05-1.43060E+06-1.26239E+04-5.60497E+04-2.15004E+07
 -1      1604 3.16456E+07 1.57362E+05 9.89764E+05-1.89045E+04 1.13931E+05-1.85224E+07
 -1      1606 3.13498E+07-1.47345E+05 2.70217E+05 3.05077E+04-9.78528E+04-1.85362E+07
 -1      1607-2.18625E+05-5.50407E+04-3.66185E+04-2.74896E+03 1.77770E+05-1.89712E+07
 -1      1609 7.17562E+04 5.76402E+04 4.85395E+04-1.88162E+03-1.56213E+05-1.89331E+07
 -1      1610 9.66685E+04 3.21220E+04-3.87861E+05 5.15714E+03-2.78734E+03-6.62290E+05
 -1      1612-4.94266E+04-3.23122E+04-4.56545E+05 5.38481E+03-1.73597E+03-6.95986E+05
 -1      1613 1.94253E+07 5.03789E+04-8.58347E+05 3.89256E+04 3.03603E+04-1.78752E+07
 -1      1615 1.93561E+07-6.91209E+04-1.18750E+06-3.03992E+04-2.20259E+04-1.78400E+07
 -1      1616-2.62775E+06 6.11482E+03 3.21302E+05 5.86970E+03 1.00366E+04-5.42273E+06
 -1      1618-2.59122E+06-4.67730E+03 2.48780E+05-1.12396E+04 3.32548E+03-5.38785E+06
 -1      1619 2.64628E+06 4.42963E+04-3.25325E+05 5.82550E+02-5.35856E+03-5.90207E+06
 -1      1621 2.54126E+06-4.53249E+04-5.19038E+05 3.48682E+03 7.65163E+03-5.86714E+06
 -1      1622 4.23427E+04 2.24419E+04 5.48611E+05 9.15172E+02-6.06381E+03-7.75654E+05
 -1      1624 1.76318E+03-2.17873E+04 4.41770E+05-4.38691E+02 6.57073E+02-7.79082E+05
 -1      1625-2.02996E+07 1.87770E+04 1.97805E+06-3.90758E+04 3.18606E+04-1.36617E+07
 -1      1627-2.04076E+07-2.56248E+04 1.93804E+06 4.73387E+04-2.46616E+04-1.36763E+07
 -1      1628-4.28673E+07 1.49214E+05-5.43718E+06-6.39748E+04-7.69646E+04-2.01157E+07
 -1      1630-4.37150E+07-1.42232E+05-5.56068E+06 9.04549E+03 9.09540E+04-2.02026E+07
 -1      1631 6.17193E+06 3.15911E+04 3.98329E+05 5.84248E+02-1.05915E+04-8.06815E+06
 -1      1633 6.14109E+06-3.56236E+04 2.05179E+05 1.13620E+04 1.25099E+04-8.13121E+06
 -1      1634-1.09799E+07 2.41084E+04 7.56062E+05 1.15325E+04 5.63373E+03-1.11189E+07
 -1      1636-1.10200E+07-2.33675E+04 6.37947E+05-2.27676E+03-2.88827E+03-1.11228E+07
 -1      1637 1.33670E+07 7.61571E+04-1.09039E+06-1.30435E+04 4.62737E+04-1.20217E+07
 -1      1639 1.31542E+07-7.18417E+04-1.37099E+06-3.51117E+02-3.68376E+04-1.19444E+07
 -1      1640-3.23093E+05 3.71708E+04 5.77819E+05-2.50740E+03-9.10072E+02-2.28901E+06
 -1      1642-4.04915E+05-3.73781E+04 4.11141E+05 1.80026E+03-1.84115E+03-2.27624E+06
 -1      1643 9.50761E+05 2.00665E+04-3.90806E+05 3.91693E+00 7.37834E+02-3.65748E+06
 -1      1645 8.99202E+05-2.02536E+04-4.73651E+05 9.83310E+02 8.76703E+02-3.63198E+06
 -1      1646 4.35783E+07 9.90208E+04 5.84143E+06-1.19205E+04-1.36163E+05-2.01577E+07
 -1      1648 4.30381E+07-1.04254E+05 5.70379E+06-4.64198E+04 1.09777E+05-1.99994E+07
 -1      1649-3.18007E+07 4.56873E+04 1.40376E+05 1.58363E+04 3.64295E+04-1.76402E+07
 -1      1651-3.19428E+07-4.42707E+04-1.73754E+04-1.72894E+04-3.41885E+04-1.76800E+07
 -1      1652 4.31366E+06 9.34420E+04-1.33242E+05 1.15626E+04 7.94788E+04-1.78679E+07
 -1      1654 4.06099E+06-7.86840E+04-4.54437E+05-1.66639E+04-8.94950E+04-1.78251E+07
 -1      1655-3.10650E+07-8.15912E+04 1.88096E+06 2.38434E+04-5.59681E+04-1.67321E+07
 -1      1657-3.08015E+07 8.41175E+04 2.17006E+06-3.53120E+04 5.62080E+04-1.67685E+07
 -1      1658-9.04982E+04 3.58787E+03 4.51122E+04 4.89365E+03 6.16599E+03-1.59967E+06
 -1      1660-1.27147E+05-4.33348E+03 5.53487E+04 7.86802E+03 1.69648E+03-1.55527E+06
 -1      1661 8.19425E+05 3.54230E+04 2.03010E+05 4.02424E+03 1.34839E+04-7.11701E+06
 -1      1663 7.50824E+05-3.06749E+04 5.12276E+04-7.12663E+03-2.08263E+04-7.05421E+06
 -1      1664 7.42669E+05 5.28226E+04-9.02320E+04-8.45229E+03 7.79914E+03-4.75722E+06
 -1      1666 6.04517E+05-5.19991E+04-3.01501E+05-4.75015E+03-5.53365E+02-4.71634E+06
 -1      1667-1.42501E+07 6.50994E+03-1.41816E+06-2.82601E+03-2.87263E+04-1.59618E+07
 -1      1669-1.42388E+07 1.39430E+04-1.40461E+06-1.00538E+04 2.52174E+04-1.59799E+07
 -1      1670 2.52824E+07-3.33350E+04-9.70753E+05-2.17767E+04-4.46773E+04-1.81316E+07
 -1      1672 2.53909E+07 2.11772E+04-8.97737E+05 7.40046E+03 4.56815E+04-1.80914E+07
 -1      1673-4.10000E+07 1.91380E+05 2.71416E+06 4.69071E+04-3.35288E+04-2.13565E+07
 -1      1675-4.13848E+07-1.93418E+05 1.81574E+06 4.69114E+04-2.63124E+04-2.11743E+07
 -1      1676-1.15404E+05 1.37063E+05 1.15923E+06 1.17921E+03 3.71065E+04-1.33432E+07
 -1      1678-3.83257E+05-1.32887E+05 5.27181E+05-1.16206E+04-2.87194E+04-1.32858E+07
 -1      1679-2.57483E+06-5.32497E+04 8.08360E+04 6.47840E+03 8.75808E+03-6.34002E+06
 -1      1681-2.46584E+06 5.02924E+04 3.16997E+05 4.50383E+03 2.44367E+03-6.34358E+06
 -1      1682 2.26034E+06-3.26481E+04-4.67686E+05 5.57728E+03-9.95124E+03-4.93616E+06
 -1      1684 2.32833E+06 3.23065E+04-3.19141E+05 1.73323E+03 3.16733E+03-4.98391E+06
 -1      1685-1.64462E+07-4.87430E+03 9.12727E+05-6.28504E+03-5.20589E+04-1.46275E+07
 -1      1687-1.64181E+07 2.08760E+04 9.70664E+05 2.06578E+03 4.69878E+04-1.46732E+07
 -1      1688-1.59643E+06-3.13543E+03 4.47672E+05-1.90662E+03-1.95107E+03-4.61132E+06
 -1      1690-1.60770E+06 2.95490E+03 4.79250E+05 4.61258E+03-5.95005E+02-4.61948E+06
 -1      1691-8.39617E+05-1.06732E+04 5.57193E+05-7.73289E+02-3.42589E+03-3.07934E+06
 -1      1693-8.08659E+05 1.15846E+04 6.00447E+05-1.53313E+03 5.97869E+03-3.11828E+06
 -1      1694-1.27343E+06 7.51122E+04 3.75371E+05 4.29389E+02 1.09144E+04-1.00124E+07
 -1      1696-1.44841E+06-7.25753E+04 5.80200E+04 3.47891E+03-1.90314E+04-9.95537E+06
 -1      1697 6.18997E+05-4.11892E+04-4.78793E+05 7.08045E+02-1.04784E+04-2.81661E+06
 -1      1699 7.12592E+05 4.09038E+04-2.98735E+05-1.06483E+03-1.98222E+03-2.83015E+06
 -1      1700 2.17040E+06 4.87111E+04-1.48683E+05-3.60313E+03 1.87555E+04-1.02981E+07
 -1      1702 2.13000E+06-4.98485E+04-4.36848E+05 2.68031E+02-2.08609E+04-1.02324E+07
 -1      1703 3.97845E+06 1.26909E+05 3.32626E+05 1.92911E+04 8.69077E+04-2.03350E+07
 -1      1705 3.55278E+06-1.21525E+05-6.98794E+04-1.40610E+04-9.44869E+04-2.03389E+07
 -1      1706-1.73890E+07-5.01178E+03 2.25062E+06 4.75169E+03-4.82747E+04-1.16625E+07
 -1      1708-1.73942E+07 5.02764E+03 2.28941E+06 1.60796E+04 3.66909E+04-1.16156E+07
 -1      1709-6.59246E+06-4.94472E+04 1.52929E+05-4.91484E+03-2.21369E+04-7.57651E+06
 -1      1711-6.48421E+06 5.04866E+04 3.77907E+05 6.37416E+02 3.16496E+04-7.65198E+06
 -1      1712 2.31884E+07 3.07867E+04 8.51430E+05 1.02974E+04 4.32265E+04-1.68346E+07
 -1      1714 2.31585E+07-1.24183E+04 7.37193E+05-2.16767E+04-3.87937E+04-1.68127E+07
 -1      1715-7.29427E+06-2.61587E+04 2.52828E+05-1.07581E+04-2.65235E+04-8.79752E+06
 -1      1717-7.26183E+06 2.80773E+04 4.01284E+05 1.70294E+04 3.20134E+04-8.83009E+06
 -1      1718 9.70643E+06-1.08963E+05-6.50136E+05 2.66952E+03-2.93583E+04-9.42917E+06
 -1      1720 9.98744E+06 1.07685E+05-2.08947E+05-8.64435E+03 4.03640E+04-9.54844E+06
 -1      1721 2.10382E+06 2.75899E+04 2.82598E+05-1.11358E+04 2.43685E+04-8.69334E+06
 -1      1723 2.08841E+06-2.00670E+04 1.39083E+05-1.14223E+04-3.10463E+04-8.63810E+06
 -1      1724 1.56350E+07 1.53381E+04 6.11411E+05 9.83381E+02 5.95912E+04-1.42164E+07
 -1      1726 1.56305E+07-4.19368E+03 5.50753E+05 3.41455E+03-6.32000E+04-1.41924E+07
 -1      1727 4.54787E+04-3.40711E+04-5.19697E+05 6.60809E+02-5.61505E+03-1.43911E+06
 -1      1729 1.09310E+05 3.41291E+04-3.56191E+05 8.65825E+02-3.66749E+03-1.44789E+06
 -1      1730 1.30248E+07 5.00775E+04-4.88899E+05 8.14329E+03 4.31176E+03-1.14362E+07
 -1      1732 1.29051E+07-5.11403E+04-7.06610E+05-1.99155E+03 8.09387E+03-1.14111E+07
 -1      1733 4.39242E+04 1.58554E+03-1.37762E+04-6.64728E+02 4.68552E+03-7.73060E+05
 -1      1735-2.09277E+04-1.45707E+03 4.09295E+04 1.07552E+03 7.19976E+02-8.32894E+05
 -1      1736 4.70021E+03-8.63568E+04-4.96901E+05-1.10568E+03-7.87063E+04-2.21981E+07
 -1      1738 1.67137E+05 8.45303E+04-8.97125E+04-1.25239E+04 7.33242E+04-2.22579E+07
 -1      1739 4.48852E+06-1.20958E+04-4.12157E+05 3.14690E+03-1.01765E+03-7.50857E+06
 -1      1741 4.48627E+06 1.12003E+04-3.32259E+05-2.25083E+03 7.03242E+03-7.52109E+06
 -1      1742-2.98387E+07 2.02405E+04-1.24910E+06-1.98654E+04 1.81072E+04-1.84877E+07
 -1      1744-2.98350E+07-3.22060E+04-1.42755E+06 1.49431E+04-3.14088E+04-1.86202E+07
 -1      1745 3.46200E+07-1.23225E+05 8.23942E+04-1.19141E+04-8.16828E+04-1.97980E+07
 -1      1747 3.48950E+07 1.11079E+05 5.87986E+05 1.88418E+04 7.37101E+04-1.97568E+07
 -1      1748 5.17272E+06 5.40633E+04-2.55186E+05 3.24046E+04 8.98736E+03-1.51256E+07
 -1      1750 5.09003E+06-5.75203E+04-5.44515E+05-4.02739E+04-7.95437E+03-1.50847E+07
 -1      1751-3.00577E+06-5.14385E+04 5.05757E+04 2.26705E+03-3.81870E+04-1.55233E+07
 -1      1753-2.80660E+06 5.17280E+04 1.95340E+05 1.01263E+04 2.80976E+04-1.55754E+07
 -1      1754-6.38423E+05-5.61478E+04-2.38584E+04 1.11424E+04-3.32975E+03-3.96627E+06
 -1      1756-4.27796E+05 5.52671E+04 1.36906E+05 3.09269E+03-2.28024E+02-3.99030E+06
 -1      1757 4.38930E+04-5.95601E+04-1.83705E+05-2.72697E+03 1.99767E+03-2.36784E+06
 -1      1759 2.87464E+05 6.02484E+04-2.79211E+04-1.00569E+04-3.65098E+02-2.34954E+06
 -1      1760-1.92776E+06-9.08295E+04 3.54126E+04 1.05672E+04-1.77501E+04-7.79129E+06
 -1      1762-1.67362E+06 8.42536E+04 3.64930E+05 4.88227E+03 1.72192E+04-7.84089E+06
 -1      1763-1.88066E+05 7.57531E+04 4.16507E+05-1.19030E+04 9.42308E+03-1.50899E+07
 -1      1765-5.69844E+05-8.79202E+04 2.52685E+05-1.01609E+04 9.41927E+03-1.50486E+07
 -1      1766-6.37728E+05-2.87878E+04 1.17591E+05 1.76386E+04-1.06922E+04-6.18736E+06
 -1      1768-5.22957E+05 2.75245E+04 1.90544E+05-5.54753E+03 2.35016E+03-6.19381E+06
 -1      1769-9.99157E+06-1.08138E+05 2.85441E+06-1.20192E+04-9.44326E+04-1.85379E+07
 -1      1771-9.77098E+06 9.84394E+04 3.32257E+06 2.53964E+04 9.83415E+04-1.85973E+07
 -1      1772-3.71496E+05-8.64429E+04-2.74432E+05 2.22319E+04-2.00700E+04-1.24037E+07
 -1      1774-1.69763E+05 8.25918E+04 8.73359E+04-1.99642E+04 2.77273E+04-1.24384E+07
 -1      1775 6.14002E+04-8.84281E+04-2.99642E+05-1.30087E+03-4.16711E+04-1.14281E+07
 -1      1777 1.86789E+05 8.87794E+04 1.65747E+05 1.81731E+04 2.87295E+04-1.15285E+07
 -1      1778-1.44266E+06-1.15884E+04 1.05489E+05-3.62164E+03-2.18257E+04-9.26354E+06
 -1      1780-1.55110E+06 3.76761E+03 2.65197E+05 2.50248E+04 2.76933E+04-9.33992E+06
 -1      1781 1.16368E+05-1.71457E+04-7.83649E+04-3.86756E+03-6.69375E+03-5.47439E+06
 -1      1783 9.05442E+04 1.73365E+04 6.24187E+04 4.21245E+03 2.69817E+03-5.51424E+06
 -1      1784-1.31363E+05-1.52684E+05 9.95227E+05-9.96696E+03 5.97687E+03-2.01943E+07
 -1      1786 6.11403E+05 1.65679E+05 1.31369E+06-3.59387E+04 6.00322E+03-2.02482E+07
 -1      1787 6.74196E+02-7.14921E+04-6.65658E+05 3.04234E+04-1.33580E+05-1.98856E+07
 -1      1789 1.35906E+05 6.76157E+04-3.37157E+05 1.14577E+04 1.26866E+05-1.99176E+07
 -1      1790-5.79779E+05-1.27522E+05-9.05541E+04 5.09923E+03-5.22936E+04-1.41355E+07
 -1      1792-2.95058E+05 1.24327E+05 4.64324E+05 6.87320E+03 5.39121E+04-1.42215E+07
 -1      1793 4.17498E+05-5.81795E+04-2.01122E+06-2.21006E+04-8.37104E+04-1.64739E+07
 -1      1795 4.38436E+05 5.16422E+04-1.66598E+06 2.97707E+04 7.87502E+04-1.65619E+07
 -1      1796 5.46509E+04-8.38781E+03-3.57014E+04 7.48474E+02 4.04597E+03-3.13583E+06
 -1      1798 9.35099E+02 8.34548E+03 7.37980E+04 5.21902E+03 3.60454E+03-3.18996E+06
 -3
    1PSTEP                         3           1           1          
  100CL  101 50.00000000         682                     0    1           1
 -4  FORC        4    1
 -5  F1          1    2    1    0
 -5  F2          1    2    2    0
 -5  F3          1    2    3    0
 -5  ALL         1    2    0    0    1ALL
 -1       280 3.90900E+04-4.30979E+03 2.68094E+02
 -1       282 1.77899E+04-1.72470E+04 2.68094E+02
 -1       283 3.16565E-05 2.65886E-03-3.11901E+01
 -1       285-2.09940E-04-5.71147E-05-3.11862E+01
 -1       286-1.22565E+02-6.56283E+01 2.64442E+02
 -1       288-1.23262E+02 1.48484E+00-5.30652E+01
 -1       289 1.22798E+02-2.17158E+02-2.96091E+02
 -1       291 1.23029E+02 2.81302E+02-1.90721E+02
 -1       300 7.31521E+04 3.61667E+03 7.12655E+03
 -1       302 3.28881E+04-6.90188E+03-1.84163E+03
 -1       303 2.38099E+04-7.16454E+03 3.84526E+03
 -1       305 2.38588E+04 6.91342E+03 6.03085E+03
 -1       314 4.47366E-04 1.94246E-03-6.23812E+01
 -1       316-4.71666E-05-2.74908E-03-6.23731E+01
 -1       317 4.67104E+04 1.72378E+04 8.02486E+02
 -1       319 9.22468E+03 7.42752E+03 8.02486E+02
 -1       320-2.38403E+04 6.03851E+03 5.33714E+03
 -1       322-2.39101E+04-6.18497E+03 4.58787E+03
 -1       323-7.30006E+04 3.91891E+03 6.54309E+03
 -1       325-3.29200E+04-7.29965E+03-1.24372E+03
 -1       334-1.02848E+02 3.24418E+01 7.82698E+01
 -1       336-1.04107E+02-9.04246E+01-4.96812E+02
 -1       337 1.03561E+02-1.54189E+02 1.01589E+02
 -1       339 1.03393E+02 2.12172E+02 2.32947E+01
 -1       348-3.84708E+04-3.80875E+03 1.86022E+02
 -1       350-1.75651E+04-1.73675E+04 1.86021E+02
 -1       351 7.82815E-05-2.07552E-03-3.11869E+01
 -1       353 2.99776E-04 5.25566E-04-3.11906E+01
 -1       354-2.15076E-04-5.44950E-05-3.11864E+01
 -1       356 4.29934E-06 2.51227E-03-3.11900E+01
 -1       357-4.71768E+04 1.68836E+04 1.02548E+03
 -1       359-9.44207E+03 7.67228E+03 1.02548E+03
 -1       360-7.40670E-06 1.24499E-05-9.35655E+01
 -1       362 3.69513E-06 2.64211E-05-9.35652E+01
 -1       363-6.55687E-05-2.23669E-05-9.35656E+01
 -1       365 6.19719E-05 1.14149E-04-9.35651E+01
 -1       366-8.63289E-05-1.09284E-04-9.35656E+01
 -1       368 6.81756E-05 2.11451E-04-9.35651E+01
 -1       369-1.26198E-04-8.15857E-05-9.35655E+01
 -1       371 1.16734E-04 1.70422E-04-9.35652E+01
 -1       372-1.86784E-04 4.43590E-05-9.35655E+01
 -1       374 1.38178E-04 1.19125E-04-9.35652E+01
 -1       375-2.24116E-04 2.93062E-04-9.35656E+01
 -1       377 1.51084E-04 2.00121E-06-9.35650E+01
 -1       378-3.14152E-04 6.49669E-04-9.35658E+01
 -1       380 2.10000E-04-1.75496E-04-9.35647E+01
 -1       381-4.76461E-04 1.08399E-03-9.35661E+01
 -1       383 3.26986E-04-4.03737E-04-9.35643E+01
 -1       384-5.41606E-04 1.55514E-03-9.35666E+01
 -1       386 3.72581E-04-6.10245E-04-9.35638E+01
 -1       387-5.18317E-04 2.10203E-03-9.35671E+01
 -1       389 3.05219E-04-8.26519E-04-9.35632E+01
 -1       390-5.76880E-04 2.63619E-03-9.35675E+01
 -1       392 3.20628E-04-1.08492E-03-9.35626E+01
 -1       393-6.51253E-04 3.19998E-03-9.35680E+01
 -1       395 3.59030E-04-1.34693E-03-9.35619E+01
 -1       396-6.75862E-04 3.69454E-03-9.35685E+01
 -1       398 3.55290E-04-1.55961E-03-9.35614E+01
 -1       399-6.91179E-04 4.13284E-03-9.35690E+01
 -1       401 3.30463E-04-1.73550E-03-9.35608E+01
 -1       402-7.03738E-04 4.44415E-03-9.35693E+01
 -1       404 3.10829E-04-1.86065E-03-9.35605E+01
 -1       405-6.56101E-04 4.78231E-03-9.35696E+01
 -1       407 2.45306E-04-1.95497E-03-9.35601E+01
 -1       408-5.80000E-04 5.08529E-03-9.35700E+01
 -1       410 1.27304E-04-2.03520E-03-9.35597E+01
 -1       411-5.36328E-04 5.21671E-03-9.35701E+01
 -1       413 5.51118E-05-2.07447E-03-9.35595E+01
 -1       414-4.70369E-04 5.37900E-03-9.35703E+01
 -1       416-2.49618E-05-2.09952E-03-9.35593E+01
 -1       417-3.81642E-04 5.53670E-03-9.35706E+01
 -1       419-1.35434E-04-2.12200E-03-9.35590E+01
 -1       420-3.13324E-04 5.56956E-03-9.35706E+01
 -1       422-2.25771E-04-2.12026E-03-9.35589E+01
 -1       423-2.48416E-04 5.62037E-03-9.35707E+01
 -1       425-2.98856E-04-2.11118E-03-9.35589E+01
 -1       426-8.70746E-05 6.38989E-03-1.24761E+02
 -1       428-4.25955E-04-3.52143E-03-1.24745E+02
 -1       429-9.79684E-05 5.71449E-03-9.35709E+01
 -1       431-4.84424E-04-2.08069E-03-9.35587E+01
 -1       432-1.64579E-04 4.96607E-03-6.23802E+01
 -1       434-4.56882E-04-6.67194E-04-6.23723E+01
 -1       435 1.20590E-04 6.28145E-03-1.24761E+02
 -1       437-6.56557E-04-3.43689E-03-1.24745E+02
 -1       438-9.93955E-05 4.87939E-03-6.23802E+01
 -1       440-5.22019E-04-6.47534E-04-6.23723E+01
 -1       441 5.85576E-05 5.47298E-03-9.35707E+01
 -1       443-6.32047E-04-2.01054E-03-9.35589E+01
 -1       444 2.26353E-04 6.10067E-03-1.24761E+02
 -1       446-7.53774E-04-3.33565E-03-1.24745E+02
 -1       447-8.37016E+03-7.49965E+02-8.68913E+03
 -1       449-8.36456E+03 7.84772E+02-1.25435E+03
 -1       450 8.36626E+03 5.81804E+03 3.53587E+03
 -1       452 8.36846E+03-5.85284E+03 5.94504E+03
 -1       461-6.93880E+03 4.68133E+02 1.98621E+03
 -1       463-6.93835E+03-4.46871E+02 2.84808E+03
 -1       464 6.93900E+03 6.65839E+02-1.97441E+03
 -1       466 6.93816E+03-6.87101E+02-3.41075E+03
 -1       475-6.30457E+03-3.85102E+02-7.91778E+03
 -1       477-6.29332E+03 3.36521E+02 5.64496E+03
 -1       478 6.29850E+03 1.06695E+04 3.38740E+02
 -1       480 6.29939E+03-1.06209E+04 1.47152E+03
 -1       489-6.95762E+03 1.38171E+01 2.18543E+03
 -1       491-6.96007E+03-6.07198E+01-3.32808E+02
 -1       492 6.95890E+03-1.95307E+03-1.12117E+03
 -1       494 6.95880E+03 1.99998E+03-1.23817E+03
 -1       503-6.67116E+03-6.40769E+02-3.90681E+03
 -1       505-6.66281E+03 8.47243E+02 3.33478E+03
 -1       506 6.66571E+03 5.58056E+03-1.13526E+03
 -1       508 6.66825E+03-5.78704E+03 1.20057E+03
 -1       517-5.18274E+03-7.78362E+02-1.69841E+03
 -1       519-5.17644E+03 6.02490E+02 3.10456E+03
 -1       520 5.17820E+03 3.85771E+03-2.06232E+03
 -1       522 5.18098E+03-3.68184E+03 1.05302E+02
 -1       531-5.68392E+03-4.46872E+02-3.44855E+03
 -1       533-5.67497E+03 7.14275E+02 2.86343E+03
 -1       534 5.67813E+03 4.82047E+03-8.50090E+02
 -1       536 5.68076E+03-5.08787E+03 9.72646E+02
 -1       545-5.81235E+03-2.48295E+02 3.15774E+02
 -1       547-5.81275E+03 7.21091E+01 4.11234E+01
 -1       548 5.81218E+03-1.27484E+02-6.83291E+02
 -1       550 5.81293E+03 3.03671E+02-1.80322E+02
 -1       559-5.33845E+03-6.26853E+02-7.73665E+02
 -1       561-5.33362E+03 6.76514E+02 2.16238E+03
 -1       562 5.33438E+03 2.27961E+03-1.99279E+03
 -1       564 5.33769E+03-2.32928E+03 5.32051E+01
 -1       573-5.04719E+03-5.89782E+02-3.18853E+03
 -1       575-5.03709E+03 5.44865E+02 2.55972E+03
 -1       576 5.04057E+03 4.53415E+03-8.29526E+02
 -1       578 5.04371E+03-4.48924E+03 9.51620E+02
 -1       587-4.68849E+03-4.20246E+02-3.59150E+03
 -1       589-4.67389E+03 4.29226E+02 4.51192E+03
 -1       590 4.67994E+03 6.35574E+03-1.38031E+03
 -1       592 4.68244E+03-6.36472E+03-4.68248E+01
 -1       601-4.31075E+03-1.27547E+02-3.08829E+03
 -1       603-4.29924E+03 2.46528E+02 3.04524E+03
 -1       604 4.30444E+03 4.75460E+03-5.25447E+02
 -1       606 4.30555E+03-4.87358E+03 6.17854E+01
 -1       615-4.03146E+03-2.84642E+02-1.30757E+03
 -1       617-4.02445E+03 9.08109E+01 2.27054E+03
 -1       618 4.02737E+03 2.90530E+03-1.02954E+03
 -1       620 4.02854E+03-2.71147E+03-4.40142E+02
 -1       629-3.88250E+03-2.79566E+02-1.39216E+03
 -1       631-3.87721E+03 4.88442E+02 1.24218E+03
 -1       632 3.87867E+03 1.96320E+03-7.59097E+02
 -1       634 3.88104E+03-2.17207E+03 4.46517E+02
 -1       643-3.97484E+03-2.49298E+02-5.72800E+02
 -1       645-3.97173E+03 2.63868E+02 9.63142E+02
 -1       646 3.97248E+03 1.19822E+03-8.51318E+02
 -1       648 3.97410E+03-1.21279E+03-4.57412E+01
 -1       657-3.41426E+03-5.03663E+02 1.87113E+02
 -1       659-3.41292E+03 3.13216E+02 8.23780E+02
 -1       660 3.41224E+03 5.94897E+02-1.42205E+03
 -1       662 3.41494E+03-4.04450E+02-1.39711E+02
 -1       671-3.29884E+03-4.13094E+02-6.40837E+02
 -1       673-3.29664E+03 6.02986E+02 3.84407E+02
 -1       674 3.29603E+03 7.09725E+02-9.00584E+02
 -1       676 3.29945E+03-8.99617E+02 6.94449E+02
 -1       685-3.06425E+03-2.08911E+02 2.29216E+02
 -1       687-3.06414E+03 1.90615E+02 2.75401E+02
 -1       688 3.06353E+03 4.53639E+01-8.19263E+02
 -1       690 3.06486E+03-2.70668E+01-1.92071E+02
 -1       699-2.77454E+03-5.67346E+02-7.85250E+02
 -1       701-2.76967E+03 5.39295E+02 1.44818E+03
 -1       702 2.77021E+03 1.76697E+03-1.47550E+03
 -1       704 2.77400E+03-1.73892E+03 2.61698E+02
 -1       713-2.41071E+03-2.03594E+02-3.67433E+02
 -1       715-2.40874E+03 1.71433E+02 5.19664E+02
 -1       716 2.40907E+03 7.12312E+02-6.23842E+02
 -1       718 2.41038E+03-6.80150E+02-3.51060E+01
 -1       727-2.14277E+03-2.92198E+02-5.12320E+02
 -1       729-2.13975E+03 4.14379E+02 8.57241E+02
 -1       730 2.14004E+03 1.01383E+03-9.58337E+02
 -1       732 2.14248E+03-1.13601E+03 1.50851E+02
 -1       741-2.13403E+03-2.30365E+02 3.37330E+02
 -1       743-2.13442E+03 1.60000E+02 1.62895E+02
 -1       744 2.13355E+03-1.01775E+02-8.31955E+02
 -1       746 2.13490E+03 1.72140E+02-2.19139E+02
 -1       755-1.72222E+03-2.98027E+02-3.19760E+02
 -1       757-1.71989E+03 2.72844E+02 7.27193E+02
 -1       758 1.72006E+03 8.34294E+02-8.73968E+02
 -1       760 1.72205E+03-8.09109E+02 2.21945E+01
 -1       769-1.50875E+03-2.94065E+02-3.00617E+02
 -1       771-1.50661E+03 2.65365E+02 6.59489E+02
 -1       772 1.50670E+03 7.67884E+02-8.71898E+02
 -1       774 1.50865E+03-7.39183E+02 6.30868E+00
 -1       783-1.21453E+03-1.08117E+02-2.52387E+02
 -1       785-1.21273E+03 1.70499E+02 5.59893E+02
 -1       786 1.21315E+03 6.06312E+02-6.56999E+02
 -1       788 1.21412E+03-6.68695E+02-2.19601E+02
 -1       797-9.88476E+02-1.39516E+02 7.18544E+01
 -1       799-9.87756E+02 1.36614E+02 3.96769E+02
 -1       800 9.87637E+02 2.56436E+02-6.73226E+02
 -1       802 9.88594E+02-2.53532E+02-2.39737E+02
 -1       811-7.43427E+02-4.19723E+01 1.89643E+02
 -1       813-7.43316E+02-2.80156E+01 2.40264E+02
 -1       814 7.43350E+02 7.46829E+01-5.10474E+02
 -1       816 7.43393E+02-4.69463E+00-4.88528E+02
 -1       825-4.91658E+02-2.22118E+02 3.71855E+01
 -1       827-4.91575E+02 3.12222E+02 7.41404E+01
 -1       828 4.90692E+02-1.60795E+01-7.06354E+02
 -1       830 4.92541E+02-7.40239E+01 1.32462E+02
 -1       839-2.58146E+02-7.27636E+01 4.03282E+02
 -1       841-2.58860E+02 7.03423E+01 7.98004E+01
 -1       842 2.58258E+02-2.52725E+02-6.07237E+02
 -1       844 2.58748E+02 2.55148E+02-3.82562E+02
 -1       853-2.48725E-05 2.57885E-05-9.35656E+01
 -1       855 1.88950E-05-6.68831E-05-9.35650E+01
 -1       856-6.53033E-05 1.17210E-04-9.35658E+01
 -1       858 8.36249E-05-2.47689E-04-9.35649E+01
 -1       859-1.15772E-04 2.19256E-04-9.35661E+01
 -1       861 1.23241E-04-4.32371E-04-9.35646E+01
 -1       862-1.62781E-04 3.55962E-04-9.35664E+01
 -1       864 2.14468E-04-7.11790E-04-9.35644E+01
 -1       865-2.35016E-04 5.31535E-04-9.35667E+01
 -1       867 2.94928E-04-1.00321E-03-9.35641E+01
 -1       868-3.03509E-04 7.24470E-04-9.35671E+01
 -1       870 3.91640E-04-1.37505E-03-9.35639E+01
 -1       871-4.57509E-04 9.17334E-04-9.35675E+01
 -1       873 5.50054E-04-1.72411E-03-9.35635E+01
 -1       874-5.38634E-04 1.11691E-03-9.35680E+01
 -1       876 6.96005E-04-2.18148E-03-9.35631E+01
 -1       877-5.24062E-04 1.33642E-03-9.35685E+01
 -1       879 7.03898E-04-2.68106E-03-9.35627E+01
 -1       880-5.36943E-04 1.49435E-03-9.35689E+01
 -1       882 7.34637E-04-3.08625E-03-9.35623E+01
 -1       883-5.50550E-04 1.63953E-03-9.35694E+01
 -1       885 7.92540E-04-3.47624E-03-9.35620E+01
 -1       886-5.14360E-04 1.74281E-03-9.35698E+01
 -1       888 7.93527E-04-3.81599E-03-9.35617E+01
 -1       889-4.57889E-04 1.82892E-03-9.35702E+01
 -1       891 7.67652E-04-4.14562E-03-9.35614E+01
 -1       892-4.25310E-04 1.87480E-03-9.35704E+01
 -1       894 7.63907E-04-4.37219E-03-9.35611E+01
 -1       895-3.48470E-04 1.92514E-03-9.35707E+01
 -1       897 7.33463E-04-4.61649E-03-9.35609E+01
 -1       898-2.28755E-04 1.95632E-03-9.35711E+01
 -1       900 6.41625E-04-4.90766E-03-9.35606E+01
 -1       901-1.53112E-04 1.95124E-03-9.35712E+01
 -1       903 5.82342E-04-5.03532E-03-9.35604E+01
 -1       904-6.64811E-05 1.96584E-03-9.35714E+01
 -1       906 5.29977E-04-5.16443E-03-9.35603E+01
 -1       907 4.39930E-05 1.97776E-03-9.35716E+01
 -1       909 4.46580E-04-5.34175E-03-9.35601E+01
 -1       910 1.33488E-04 1.97071E-03-9.35718E+01
 -1       912 3.65532E-04-5.42894E-03-9.35600E+01
 -1       913 2.20357E-04 1.96757E-03-9.35718E+01
 -1       915 2.98711E-04-5.46664E-03-9.35599E+01
 -1       916 3.12905E-04 1.96933E-03-9.35719E+01
 -1       918 2.19412E-04-5.54570E-03-9.35598E+01
 -1       919 3.90278E-04 1.96581E-03-9.35720E+01
 -1       921 1.52601E-04-5.57789E-03-9.35598E+01
 -1       922 4.52578E-04 1.96756E-03-9.35720E+01
 -1       924 9.51182E-05-5.60423E-03-9.35598E+01
 -1       925 5.15812E-04 1.96381E-03-9.35720E+01
 -1       927 3.87207E-05-5.60054E-03-9.35598E+01
 -1       928 5.57698E-04 1.96574E-03-9.35720E+01
 -1       930-7.26008E-06-5.58853E-03-9.35598E+01
 -1       931 5.94757E-04 1.96350E-03-9.35720E+01
 -1       933-4.29335E-05-5.57448E-03-9.35598E+01
 -1       934 6.17168E-04 1.96132E-03-9.35719E+01
 -1       936-7.33248E-05-5.54380E-03-9.35598E+01
 -1       937 5.24268E-04 6.13535E-04-6.23815E+01
 -1       939 5.30081E-05-4.80629E-03-6.23735E+01
 -1       940 1.91083E+04 1.46342E+02 1.00667E+04
 -1       942 1.65218E+04 1.46342E+02 1.17417E+04
 -1       943 6.43624E+02-7.57490E+01-1.66282E+03
 -1       945-6.44435E+02-7.57490E+01-1.46073E+03
 -1       946-1.60765E+04 2.17058E+02 1.05300E+04
 -1       948-1.97506E+04 2.17058E+02 1.12577E+04
 -1       949-8.10417E+03-3.57522E+03 6.66956E+03
 -1       951-8.10744E+03 3.44930E+03 2.60334E+03
 -1       952 8.10412E+03-1.23221E+03-7.10517E+03
 -1       954 8.10750E+03 1.35813E+03-2.63029E+03
 -1       963-7.91655E+03-1.08117E+03-1.81919E+03
 -1       965-7.91698E+03 1.13499E+03-2.84443E+03
 -1       966 7.91639E+03-3.53467E+02 1.35049E+03
 -1       968 7.91713E+03 2.99645E+02 2.76226E+03
 -1       977-5.67145E+03-7.02252E+03 1.94766E+03
 -1       979-5.67469E+03 7.08042E+03-2.11065E+03
 -1       980 5.66927E+03-1.32160E+03-4.69509E+03
 -1       982 5.67688E+03 1.26370E+03 4.28899E+03
 -1       991-5.91075E+03-4.69353E+03 7.75812E+02
 -1       993-5.91135E+03 4.40969E+03-4.53201E+02
 -1       994 5.90842E+03-2.49547E+02-3.29213E+03
 -1       996 5.91368E+03 5.33380E+02 2.50695E+03
 -1      1005-7.09132E+03-3.66944E+03-1.13322E+03
 -1      1007-7.09062E+03 3.95474E+03-6.94964E+02
 -1      1008 7.08846E+03-3.05819E+00-1.78978E+03
 -1      1010 7.09349E+03-2.82240E+02 3.06709E+03
 -1      1019-5.67491E+03-4.18417E+03-2.52191E+02
 -1      1021-5.67576E+03 4.11405E+03-1.14542E+03
 -1      1022 5.67193E+03-2.49453E+02-2.19768E+03
 -1      1024 5.67873E+03 3.19569E+02 3.08858E+03
 -1      1033-5.55704E+03-4.25650E+02 4.93473E+02
 -1      1035-5.55719E+03 4.35396E+02 3.36826E+02
 -1      1036 5.55674E+03-5.47694E+01-9.20688E+02
 -1      1038 5.55749E+03 4.50222E+01-3.72175E+02
 -1      1047-6.26217E+03-4.20441E+02-8.75389E+02
 -1      1049-6.26310E+03 4.76709E+02-1.53211E+03
 -1      1050 6.26221E+03-2.37313E+02 6.42561E+02
 -1      1052 6.26306E+03 1.81044E+02 1.21407E+03
 -1      1061-4.69886E+03 1.42173E+03 2.37326E+02
 -1      1063-4.70055E+03-1.51761E+03-7.37903E+02
 -1      1064 4.70119E+03-2.62690E+02 9.33172E+02
 -1      1066 4.69821E+03 3.58571E+02-9.39310E+02
 -1      1075-4.66923E+03-2.30169E+03 2.94261E+01
 -1      1077-4.66970E+03 2.23227E+03-3.78659E+02
 -1      1078 4.66702E+03-9.52753E+01-1.50081E+03
 -1      1080 4.67191E+03 1.64693E+02 1.38748E+03
 -1      1089-5.03684E+03 2.06033E+03-8.27056E+02
 -1      1091-5.03625E+03-1.86072E+03-3.91227E+02
 -1      1092 5.03871E+03 3.90077E+01 1.60472E+03
 -1      1094 5.03438E+03-2.38627E+02-8.93149E+02
 -1      1103-4.22279E+03 1.65449E+03-7.37669E+02
 -1      1105-4.22246E+03-1.71821E+03-5.13899E+02
 -1      1106 4.22462E+03 1.03133E+02 1.42463E+03
 -1      1108 4.22062E+03-3.94108E+01-7.23929E+02
 -1      1117-4.22843E+03 2.50322E+02 7.45706E+01
 -1      1119-4.22880E+03-2.33583E+02-1.05976E+02
 -1      1120 4.22890E+03-6.58802E+01-6.14377E+01
 -1      1122 4.22832E+03 4.91407E+01-3.69721E+02
 -1      1131-4.24548E+03 2.45696E+03-9.57481E+02
 -1      1133-4.24532E+03-2.40138E+03-8.33691E+02
 -1      1134 4.24849E+03 1.16347E+01 2.16764E+03
 -1      1136 4.24231E+03-6.72155E+01-9.27334E+02
 -1      1145-3.65403E+03-1.26521E+03 1.83326E+02
 -1      1147-3.65463E+03 1.21336E+03-1.86443E+02
 -1      1148 3.65273E+03-9.18593E+01-1.01918E+03
 -1      1150 3.65593E+03 1.43706E+02 5.59735E+02
 -1      1159-3.59111E+03 3.13393E+03-8.15970E+02
 -1      1161-3.59112E+03-3.07279E+03-7.77394E+02
 -1      1162 3.59524E+03-1.82881E+01 2.49822E+03
 -1      1164 3.58699E+03-4.28510E+01-1.45572E+03
 -1      1173-3.08505E+03-7.79597E+02-1.14025E+02
 -1      1175-3.08529E+03 6.71668E+02-2.56674E+02
 -1      1176 3.08419E+03 8.52303E+00-5.08172E+02
 -1      1178 3.08615E+03 9.94055E+01 4.16307E+02
 -1      1187-3.12975E+03 1.76244E+03-7.21122E+02
 -1      1189-3.12900E+03-1.61596E+03-3.38685E+02
 -1      1190 3.13169E+03 4.85657E+01 1.35265E+03
 -1      1192 3.12707E+03-1.95049E+02-7.99554E+02
 -1      1201-2.75573E+03-9.06148E+02-2.35889E+02
 -1      1203-2.75652E+03 8.79108E+02-6.32481E+02
 -1      1204 2.75489E+03-1.12810E+02-4.09861E+02
 -1      1206 2.75736E+03 1.39849E+02 7.27364E+02
 -1      1215-2.46726E+03 1.00349E+02-1.84613E+02
 -1      1217-2.46857E+03-6.57117E+01-7.76434E+02
 -1      1218 2.46803E+03-2.05832E+02 2.80080E+02
 -1      1220 2.46780E+03 1.71195E+02 1.74251E+02
 -1      1229-2.16486E+03-3.47816E+02-8.62559E+01
 -1      1231-2.16590E+03 2.31072E+02-5.62747E+02
 -1      1232 2.16497E+03-9.34067E+01-9.11486E+01
 -1      1234 2.16580E+03 2.10150E+02 2.77587E+02
 -1      1243-2.02779E+03 4.23937E+02-5.93932E+02
 -1      1245-2.02741E+03-3.23120E+02-4.15310E+02
 -1      1246 2.02813E+03 6.47758E+00 4.89237E+02
 -1      1248 2.02707E+03-1.07295E+02 1.32898E+01
 -1      1257-1.78012E+03 2.79236E+02-3.81796E+02
 -1      1259-1.78033E+03-2.99130E+02-4.67805E+02
 -1      1260 1.78063E+03-1.74572E+01 3.55686E+02
 -1      1262 1.77981E+03 3.73506E+01-1.28005E+01
 -1      1271-1.48408E+03 3.96247E+02-3.07436E+02
 -1      1273-1.48458E+03-4.71541E+02-5.19201E+02
 -1      1274 1.48494E+03-2.98136E+01 4.36390E+02
 -1      1276 1.48371E+03 1.05107E+02-1.16469E+02
 -1      1285-1.20360E+03 5.43698E+02-2.57596E+02
 -1      1287-1.20454E+03-4.68837E+02-6.68098E+02
 -1      1288 1.20478E+03-1.68193E+02 5.32024E+02
 -1      1290 1.20335E+03 9.33309E+01-1.13045E+02
 -1      1299-1.02039E+03 5.17210E+02-3.17382E+02
 -1      1301-1.02086E+03-5.01513E+02-5.19243E+02
 -1      1302 1.02134E+03-7.21554E+01 4.89461E+02
 -1      1304 1.01990E+03 5.64569E+01-1.59551E+02
 -1      1313-7.36150E+02 5.01580E+02-1.57004E+02
 -1      1315-7.37530E+02-5.99677E+02-7.64835E+02
 -1      1316 7.37614E+02-1.44567E+02 5.58356E+02
 -1      1318 7.36066E+02 2.42664E+02-1.43233E+02
 -1      1327-5.02739E+02 4.16974E+02-1.71722E+02
 -1      1329-5.03857E+02-3.05206E+02-6.67166E+02
 -1      1330 5.03802E+02-2.13703E+02 3.96138E+02
 -1      1332 5.02793E+02 1.01933E+02-6.39657E+01
 -1      1341-2.82171E+02 3.08522E+02-2.11162E+02
 -1      1343-2.83315E+02-3.26294E+02-7.24394E+02
 -1      1344 2.83184E+02-1.54597E+02 4.56947E+02
 -1      1346 2.82301E+02 1.72368E+02 5.24958E+01
 -1      1355 2.82006E-03-2.05276E-02-6.62331E+01
 -1      1357-2.04866E-03 2.13716E-02-6.62217E+01
 -1      1358 2.68900E-03-2.05555E-02-6.62331E+01
 -1      1360-1.91647E-03 2.13985E-02-6.62216E+01
 -1      1361 2.71486E-03-2.04077E-02-6.62330E+01
 -1      1363-1.96220E-03 2.11447E-02-6.62217E+01
 -1      1364-7.21522E-06-1.30868E-05-9.35652E+01
 -1      1366 2.36487E-06-2.59924E-05-9.35655E+01
 -1      1367-6.84277E-05 1.56679E-05-9.35651E+01
 -1      1369 7.23057E-05-1.12954E-04-9.35655E+01
 -1      1370-9.06713E-05 1.17746E-04-9.35650E+01
 -1      1372 6.97863E-05-2.54212E-04-9.35656E+01
 -1      1373-1.15657E-04 1.50393E-04-9.35650E+01
 -1      1375 1.21827E-04-2.83187E-04-9.35655E+01
 -1      1376-2.34938E-04 1.45169E-05-9.35651E+01
 -1      1378 2.29252E-04-2.02896E-04-9.35655E+01
 -1      1379-2.77651E-04-1.40648E-04-9.35650E+01
 -1      1381 2.61758E-04-2.04676E-04-9.35656E+01
 -1      1382-3.99903E-04-3.38068E-04-9.35649E+01
 -1      1384 3.86665E-04-1.37385E-04-9.35658E+01
 -1      1385-5.75082E-04-5.61547E-04-9.35647E+01
 -1      1387 5.68753E-04-7.48256E-05-9.35659E+01
 -1      1388-5.90007E-04-7.96170E-04-9.35644E+01
 -1      1390 6.05639E-04-8.72552E-05-9.35663E+01
 -1      1391-6.49464E-04-1.03849E-03-9.35642E+01
 -1      1393 6.77453E-04-2.50235E-05-9.35666E+01
 -1      1394-7.58356E-04-1.32189E-03-9.35639E+01
 -1      1396 8.08204E-04 4.82687E-05-9.35669E+01
 -1      1397-7.26316E-04-1.64898E-03-9.35635E+01
 -1      1399 8.37606E-04 7.19604E-05-9.35673E+01
 -1      1400-6.74218E-04-1.97442E-03-9.35632E+01
 -1      1402 8.07752E-04 1.55407E-04-9.35677E+01
 -1      1403-6.50587E-04-2.30443E-03-9.35628E+01
 -1      1405 8.36807E-04 2.72009E-04-9.35681E+01
 -1      1406-6.26536E-04-2.67959E-03-9.35625E+01
 -1      1408 8.40220E-04 4.03622E-04-9.35686E+01
 -1      1409-5.70771E-04-2.98941E-03-9.35622E+01
 -1      1411 8.49376E-04 5.26698E-04-9.35689E+01
 -1      1412-5.11485E-04-3.34305E-03-9.35618E+01
 -1      1414 8.17672E-04 6.63214E-04-9.35693E+01
 -1      1415-4.44714E-04-3.62592E-03-9.35616E+01
 -1      1417 8.02246E-04 7.97734E-04-9.35696E+01
 -1      1418-3.71586E-04-3.94491E-03-9.35613E+01
 -1      1420 7.62634E-04 9.31399E-04-9.35700E+01
 -1      1421-2.93645E-04-4.22368E-03-9.35610E+01
 -1      1423 7.31561E-04 1.07925E-03-9.35703E+01
 -1      1424-2.54528E-04-4.45277E-03-9.35608E+01
 -1      1426 7.03359E-04 1.22636E-03-9.35706E+01
 -1      1427-2.12067E-04-4.62560E-03-9.35607E+01
 -1      1429 6.88411E-04 1.33922E-03-9.35708E+01
 -1      1430-1.56112E-04-4.79759E-03-9.35605E+01
 -1      1432 6.54847E-04 1.43801E-03-9.35710E+01
 -1      1433-1.04728E-04-4.92537E-03-9.35604E+01
 -1      1435 6.15740E-04 1.53414E-03-9.35711E+01
 -1      1436-7.21720E-05-5.03171E-03-9.35603E+01
 -1      1438 5.88389E-04 1.62133E-03-9.35712E+01
 -1      1439-5.14807E-05-5.12481E-03-9.35602E+01
 -1      1441 5.74586E-04 1.70275E-03-9.35713E+01
 -1      1442-3.58755E-05-5.17858E-03-9.35602E+01
 -1      1444 5.61802E-04 1.76933E-03-9.35714E+01
 -1      1445-4.06792E-05-5.20205E-03-9.35602E+01
 -1      1447 5.60315E-04 1.81344E-03-9.35714E+01
 -1      1448-1.89797E-04-5.84239E-03-1.24747E+02
 -1      1450 6.67023E-04 3.14756E-03-1.24762E+02
 -1      1451-7.98916E-05-5.82302E-05-9.35647E+01
 -1      1453 8.89730E-06 1.05834E-04-9.35659E+01
 -1      1454-8.45803E-05-1.45113E-04-9.35641E+01
 -1      1456 1.40539E-04 4.75576E-04-9.35665E+01
 -1      1457-3.59493E-05-8.22208E-05-6.23757E+01
 -1      1459 7.42672E-05 6.33050E-04-6.23778E+01
 -1      1460-8.50587E-06-3.51030E-04-9.35639E+01
 -1      1462 4.34939E-05 8.05255E-04-9.35666E+01
 -1      1463-1.02416E-04-4.38372E-04-9.35643E+01
 -1      1465 1.90343E-04 7.97514E-04-9.35662E+01
 -1      1466-1.93561E-04-4.51202E-04-9.35644E+01
 -1      1468 2.45997E-04 9.14894E-04-9.35660E+01
 -1      1469-3.59774E-04-4.29746E-04-9.35645E+01
 -1      1471 4.08550E-04 9.46700E-04-9.35660E+01
 -1      1472-5.86170E-04-3.54806E-04-9.35644E+01
 -1      1474 6.14163E-04 1.01125E-03-9.35660E+01
 -1      1475-6.56975E-04-3.77567E-04-9.35641E+01
 -1      1477 6.70380E-04 1.26872E-03-9.35663E+01
 -1      1478-7.49116E-04-3.80854E-04-9.35639E+01
 -1      1480 7.39755E-04 1.41814E-03-9.35665E+01
 -1      1481-9.01671E-04-3.35841E-04-9.35637E+01
 -1      1483 8.52709E-04 1.55606E-03-9.35667E+01
 -1      1484-9.57305E-04-3.41436E-04-9.35633E+01
 -1      1486 8.80169E-04 1.84597E-03-9.35670E+01
 -1      1487-9.83526E-04-3.74124E-04-9.35629E+01
 -1      1489 8.52530E-04 2.09675E-03-9.35674E+01
 -1      1490-1.03173E-03-3.89143E-04-9.35626E+01
 -1      1492 8.63243E-04 2.29475E-03-9.35677E+01
 -1      1493-1.07187E-03-4.38110E-04-9.35622E+01
 -1      1495 8.36898E-04 2.57583E-03-9.35680E+01
 -1      1496-1.07604E-03-5.15851E-04-9.35619E+01
 -1      1498 8.10957E-04 2.82658E-03-9.35683E+01
 -1      1499-1.06615E-03-6.16250E-04-9.35615E+01
 -1      1501 7.36231E-04 3.14226E-03-9.35686E+01
 -1      1502-1.04734E-03-7.17380E-04-9.35612E+01
 -1      1504 6.82877E-04 3.38353E-03-9.35688E+01
 -1      1505-1.03285E-03-8.26698E-04-9.35609E+01
 -1      1507 6.16549E-04 3.67032E-03-9.35691E+01
 -1      1508-9.85446E-04-9.59264E-04-9.35605E+01
 -1      1510 5.41417E-04 3.94588E-03-9.35694E+01
 -1      1511-9.38828E-04-1.09181E-03-9.35603E+01
 -1      1513 4.58186E-04 4.17764E-03-9.35696E+01
 -1      1514-8.87999E-04-1.20240E-03-9.35601E+01
 -1      1516 3.87380E-04 4.35640E-03-9.35698E+01
 -1      1517-8.47705E-04-1.30797E-03-9.35599E+01
 -1      1519 3.26048E-04 4.54355E-03-9.35699E+01
 -1      1520-8.09844E-04-1.41228E-03-9.35597E+01
 -1      1522 2.76846E-04 4.69214E-03-9.35701E+01
 -1      1523-7.72223E-04-1.51317E-03-9.35596E+01
 -1      1525 2.28395E-04 4.82361E-03-9.35702E+01
 -1      1526-7.32683E-04-1.61025E-03-9.35595E+01
 -1      1528 1.83743E-04 4.94548E-03-9.35703E+01
 -1      1529-6.96957E-04-1.69245E-03-9.35594E+01
 -1      1531 1.50019E-04 5.02949E-03-9.35703E+01
 -1      1532-6.63513E-04-1.75605E-03-9.35593E+01
 -1      1534 1.14344E-04 5.09041E-03-9.35704E+01
 -1      1535-7.17381E-04-3.09947E-03-1.24746E+02
 -1      1537 2.08311E-04 5.75673E-03-1.24761E+02
 -1      1538 8.37914E-04-7.71562E-03-1.32457E+02
 -1      1540-8.07809E-04 7.62710E-03-1.32452E+02
 -1      1541 4.36065E-03-3.82327E-02-1.32463E+02
 -1      1543-4.37265E-03 3.80938E-02-1.32446E+02
 -1      1544 4.32628E-03-3.51885E-02-1.10388E+02
 -1      1546-4.32864E-03 3.51762E-02-1.10369E+02
 -1      1547 5.21978E-03-4.21386E-02-1.32466E+02
 -1      1549-5.22471E-03 4.21406E-02-1.32443E+02
 -1      1550 4.01316E-04-1.27461E-02-1.54533E+02
 -1      1552-3.20432E-04 1.26369E-02-1.54528E+02
 -1      1553 2.52140E-03-2.54728E-02-1.54538E+02
 -1      1555-2.48303E-03 2.52190E-02-1.54523E+02
 -1      1556 3.99065E-03-3.32669E-02-1.32464E+02
 -1      1558-3.94794E-03 3.31484E-02-1.32445E+02
 -1      1559 4.88237E-05-5.37351E-04-1.54531E+02
 -1      1561-5.21389E-05 5.33106E-04-1.54530E+02
 -1      1562 2.15723E-04-2.41372E-03-8.83039E+01
 -1      1564-2.15483E-04 2.38231E-03-8.83023E+01
 -1      1565-8.66185E-05-4.69538E-03-1.32455E+02
 -1      1567 1.22875E-04 4.68785E-03-1.32454E+02
 -1      1568 4.05468E-03-3.42268E-02-1.10387E+02
 -1      1570-4.06367E-03 3.41753E-02-1.10370E+02
 -1      1571 4.13044E-03-3.48522E-02-1.10388E+02
 -1      1573-4.14994E-03 3.48015E-02-1.10370E+02
 -1      1574 5.55670E-03-4.61596E-02-1.54543E+02
 -1      1576-5.53159E-03 4.60654E-02-1.54518E+02
 -1      1577 9.87327E-04-1.05522E-02-1.10382E+02
 -1      1579-9.64572E-04 1.04454E-02-1.10376E+02
 -1      1580 6.26327E-04-1.12365E-02-8.83051E+01
 -1      1582-6.18264E-04 1.11560E-02-8.83010E+01
 -1      1583 1.97961E-03-2.64607E-02-1.76611E+02
 -1      1585-1.86979E-03 2.62539E-02-1.76601E+02
 -1      1586 2.44579E-03-2.35571E-02-1.10384E+02
 -1      1588-2.44318E-03 2.34240E-02-1.10374E+02
 -1      1589 4.45494E-03-3.95133E-02-1.54539E+02
 -1      1591-4.42926E-03 3.93148E-02-1.54521E+02
 -1      1592 3.47029E-03-3.05403E-02-1.32463E+02
 -1      1594-3.42727E-03 3.03989E-02-1.32446E+02
 -1      1595 4.16987E-03-3.66784E-02-1.32464E+02
 -1      1597-4.14254E-03 3.65917E-02-1.32445E+02
 -1      1598-9.44271E-06-6.82770E-05-8.83031E+01
 -1      1600 9.28609E-06 6.46731E-05-8.83031E+01
 -1      1601-2.49359E-05-3.06286E-04-1.32455E+02
 -1      1603 3.07355E-05 3.09500E-04-1.32455E+02
 -1      1604-1.07459E-04-1.24151E-03-8.83032E+01
 -1      1606 1.12229E-04 1.24904E-03-8.83030E+01
 -1      1607-1.85838E-06 1.19059E-05-8.83031E+01
 -1      1609 7.93202E-07-1.26002E-05-8.83031E+01
 -1      1610 3.95592E-03-3.48716E-02-1.10388E+02
 -1      1612-3.96230E-03 3.48737E-02-1.10369E+02
 -1      1613 1.29604E-04-5.37542E-03-1.10380E+02
 -1      1615-9.65834E-05 5.32086E-03-1.10378E+02
 -1      1616 5.02600E-03-4.11375E-02-1.32466E+02
 -1      1618-5.01138E-03 4.11148E-02-1.32444E+02
 -1      1619 5.56538E-03-4.64586E-02-1.54542E+02
 -1      1621-5.57609E-03 4.63072E-02-1.54519E+02
 -1      1622 5.09247E-03-4.19360E-02-1.32466E+02
 -1      1624-5.09964E-03 4.19574E-02-1.32443E+02
 -1      1625 1.56840E-03-1.57144E-02-1.10384E+02
 -1      1627-1.55737E-03 1.55724E-02-1.10374E+02
 -1      1628 2.63132E-06-3.78079E-06-1.76606E+02
 -1      1630-4.00132E-06 2.83190E-06-1.76606E+02
 -1      1631 2.57255E-03-2.36005E-02-8.83085E+01
 -1      1633-2.57429E-03 2.35237E-02-8.82976E+01
 -1      1634 3.28374E-03-2.81276E-02-1.32463E+02
 -1      1636-3.23022E-03 2.79796E-02-1.32446E+02
 -1      1637 1.28650E-03-1.52090E-02-8.83059E+01
 -1      1639-1.28457E-03 1.51175E-02-8.83002E+01
 -1      1640 5.96953E-03-4.92984E-02-1.54544E+02
 -1      1642-5.97925E-03 4.92863E-02-1.54517E+02
 -1      1643 5.81223E-03-4.85117E-02-1.54543E+02
 -1      1645-5.83158E-03 4.84292E-02-1.54518E+02
 -1      1646-1.24041E-06-8.27860E-06-1.76606E+02
 -1      1648 1.32846E-07 1.11547E-05-1.76606E+02
 -1      1649 2.63575E-04-2.71981E-03-1.32456E+02
 -1      1651-2.53175E-04 2.67600E-03-1.32454E+02
 -1      1652 2.96800E-04-6.09895E-03-1.54532E+02
 -1      1654-2.43724E-04 6.00504E-03-1.54529E+02
 -1      1655 6.90178E-04-6.08693E-03-1.54532E+02
 -1      1657-6.46453E-04 5.99142E-03-1.54528E+02
 -1      1658 5.06198E-03-4.21550E-02-1.32466E+02
 -1      1660-5.06854E-03 4.21612E-02-1.32443E+02
 -1      1661 5.36020E-03-4.58074E-02-1.54542E+02
 -1      1663-5.35601E-03 4.56503E-02-1.54519E+02
 -1      1664 4.87448E-03-4.14481E-02-1.32465E+02
 -1      1666-4.88066E-03 4.13890E-02-1.32444E+02
 -1      1667 8.32654E-04-1.00343E-02-1.32458E+02
 -1      1669-7.78620E-04 9.95614E-03-1.32452E+02
 -1      1670-3.17780E-05-3.44523E-03-1.54531E+02
 -1      1672 9.39663E-05 3.42714E-03-1.54530E+02
 -1      1673 4.86179E-06-6.52225E-05-8.83031E+01
 -1      1675-6.55655E-06 6.63213E-05-8.83030E+01
 -1      1676 1.14621E-03-1.38190E-02-8.83064E+01
 -1      1678-1.14978E-03 1.36838E-02-8.82996E+01
 -1      1679 4.15857E-03-3.38527E-02-1.10388E+02
 -1      1681-4.15376E-03 3.37986E-02-1.10370E+02
 -1      1682 4.86177E-03-4.07521E-02-1.32465E+02
 -1      1684-4.86840E-03 4.06655E-02-1.32445E+02
 -1      1685 1.53961E-03-1.81165E-02-1.54536E+02
 -1      1687-1.49090E-03 1.79110E-02-1.54525E+02
 -1      1688 5.87477E-03-4.87852E-02-1.54543E+02
 -1      1690-5.87394E-03 4.87268E-02-1.54517E+02
 -1      1691 5.15932E-03-4.22183E-02-1.32466E+02
 -1      1693-5.16090E-03 4.22044E-02-1.32443E+02
 -1      1694 4.35182E-03-3.77724E-02-1.54540E+02
 -1      1696-4.30613E-03 3.75445E-02-1.54521E+02
 -1      1697 4.97962E-03-4.18660E-02-1.32465E+02
 -1      1699-4.99141E-03 4.18228E-02-1.32444E+02
 -1      1700 2.63811E-03-2.47014E-02-1.10385E+02
 -1      1702-2.62804E-03 2.45858E-02-1.10373E+02
 -1      1703-2.28667E-05-2.17156E-03-1.54531E+02
 -1      1705 4.91665E-05 2.11118E-03-1.54530E+02
 -1      1706 2.98152E-03-2.55908E-02-1.32463E+02
 -1      1708-2.93744E-03 2.54390E-02-1.32447E+02
 -1      1709 3.76076E-03-3.19459E-02-1.10388E+02
 -1      1711-3.75722E-03 3.18717E-02-1.10370E+02
 -1      1712 1.96772E-04-8.26132E-03-1.32456E+02
 -1      1714-1.45555E-04 8.22030E-03-1.32453E+02
 -1      1715 4.22522E-03-3.49942E-02-1.32464E+02
 -1      1717-4.18714E-03 3.48868E-02-1.32445E+02
 -1      1718 3.63893E-03-3.55909E-02-1.54538E+02
 -1      1720-3.60812E-03 3.53583E-02-1.54523E+02
 -1      1721 3.88949E-03-3.58264E-02-1.32464E+02
 -1      1723-3.86414E-03 3.57251E-02-1.32446E+02
 -1      1724 8.64904E-04-1.69260E-02-1.54534E+02
 -1      1726-7.76203E-04 1.68063E-02-1.54527E+02
 -1      1727 5.83210E-03-4.89024E-02-1.54543E+02
 -1      1729-5.85232E-03 4.88614E-02-1.54517E+02
 -1      1730 2.78938E-03-2.95989E-02-1.54536E+02
 -1      1732-2.73805E-03 2.93627E-02-1.54525E+02
 -1      1733 4.87597E-03-4.19789E-02-1.32466E+02
 -1      1735-4.88265E-03 4.20150E-02-1.32443E+02
 -1      1736-1.39382E-05-1.69868E-04-1.76606E+02
 -1      1738 1.29768E-05 1.66261E-04-1.76606E+02
 -1      1739 4.73406E-03-4.28771E-02-1.54540E+02
 -1      1741-4.70707E-03 4.27071E-02-1.54520E+02
 -1      1742 1.03094E-04-1.56537E-03-1.54531E+02
 -1      1744-9.78223E-05 1.52890E-03-1.54530E+02
 -1      1745-1.28579E-04-1.34067E-03-1.76606E+02
 -1      1747 1.50478E-04 1.36688E-03-1.76606E+02
 -1      1748 3.80870E-04-7.93894E-03-1.10381E+02
 -1      1750-3.63638E-04 7.84561E-03-1.10377E+02
 -1      1751 9.43862E-04-1.43660E-02-1.54534E+02
 -1      1753-8.47498E-04 1.42411E-02-1.54527E+02
 -1      1754 5.07898E-03-4.20038E-02-1.32466E+02
 -1      1756-5.08396E-03 4.19648E-02-1.32444E+02
 -1      1757 4.95298E-03-4.21381E-02-1.32466E+02
 -1      1759-4.96894E-03 4.21208E-02-1.32443E+02
 -1      1760 4.25042E-03-3.77347E-02-1.32464E+02
 -1      1762-4.24181E-03 3.76047E-02-1.32445E+02
 -1      1763 5.45762E-04-9.76735E-03-8.83054E+01
 -1      1765-5.42087E-04 9.68332E-03-8.83007E+01
 -1      1766 4.11999E-03-3.37463E-02-1.10388E+02
 -1      1768-4.11928E-03 3.37123E-02-1.10370E+02
 -1      1769 1.78435E-04-3.30369E-03-1.32455E+02
 -1      1771-1.59486E-04 3.24254E-03-1.32454E+02
 -1      1772 3.17485E-03-3.18401E-02-1.76614E+02
 -1      1774-3.11184E-03 3.14906E-02-1.76598E+02
 -1      1775 3.12569E-03-2.79008E-02-1.32462E+02
 -1      1777-3.10211E-03 2.77005E-02-1.32447E+02
 -1      1778 3.39226E-03-2.89274E-02-1.10386E+02
 -1      1780-3.37407E-03 2.88762E-02-1.10371E+02
 -1      1781 4.86345E-03-4.09649E-02-1.32465E+02
 -1      1783-4.85442E-03 4.09201E-02-1.32444E+02
 -1      1784-3.51463E-05-6.79447E-04-8.83032E+01
 -1      1786 3.83875E-05 6.61365E-04-8.83030E+01
 -1      1787-1.95575E-05-6.14045E-04-1.32455E+02
 -1      1789 2.34247E-05 5.97464E-04-1.32455E+02
 -1      1790 1.77230E-03-2.35907E-02-1.76612E+02
 -1      1792-1.67909E-03 2.33232E-02-1.76600E+02
 -1      1793 4.90133E-04-7.70626E-03-1.32456E+02
 -1      1795-4.53507E-04 7.62948E-03-1.32453E+02
 -1      1796 5.02371E-03-4.20904E-02-1.32466E+02
 -1      1798-5.02891E-03 4.20899E-02-1.32444E+02
 -3
    1PSTEP                         4           1           1          
  100CL  101 50.00000000         682                     0    1           1
 -4  PE          1    1
 -5  PE          1    1    0    0
 -1       280 0.00000E+00
 -1       282 0.00000E+00
 -1       283 0.00000E+00
 -1       285 0.00000E+00
 -1       286 0.00000E+00
 -1       288 0.00000E+00
 -1       289 0.00000E+00
 -1       291 0.00000E+00
 -1       300 0.00000E+00
 -1       302 0.00000E+00
 -1       303 0.00000E+00
 -1       305 0.00000E+00
 -1       314 0.00000E+00
 -1       316 0.00000E+00
 -1       317 0.00000E+00
 -1       319 0.00000E+00
 -1       320 0.00000E+00
 -1       322 0.00000E+00
 -1       323 0.00000E+00
 -1       325 0.00000E+00
 -1       334 0.00000E+00
 -1       336 0.00000E+00
 -1       337 0.00000E+00
 -1       339 0.00000E+00
 -1       348 0.00000E+00
 -1       350 0.00000E+00
 -1       351 0.00000E+00
 -1       353 0.00000E+00
 -1       354 0.00000E+00
 -1       356 0.00000E+00
 -1       357 0.00000E+00
 -1       359 0.00000E+00
 -1       360 0.00000E+00
 -1       362 0.00000E+00
 -1       363 0.00000E+00
 -1       365 0.00000E+00
 -1       366 0.00000E+00
 -1       368 0.00000E+00
 -1       369 0.00000E+00
 -1       371 0.00000E+00
 -1       372 0.00000E+00
 -1       374 0.00000E+00
 -1       375 0.00000E+00
 -1       377 0.00000E+00
 -1       378 0.00000E+00
 -1       380 0.00000E+00
 -1       381 0.00000E+00
 -1       383 0.00000E+00
 -1       384 0.00000E+00
 -1       386 0.00000E+00
 -1       387 0.00000E+00
 -1       389 0.00000E+00
 -1       390 0.00000E+00
 -1       392 0.00000E+00
 -1       393 0.00000E+00
 -1       395 0.00000E+00
 -1       396 0.00000E+00
 -1       398 0.00000E+00
 -1       399 0.00000E+00
 -1       401 0.00000E+00
 -1       402 0.00000E+00
 -1       404 0.00000E+00
 -1       405 0.00000E+00
 -1       407 0.00000E+00
 -1       408 0.00000E+00
 -1       410 0.00000E+00
 -1       411 0.00000E+00
 -1       413 0.00000E+00
 -1       414 0.00000E+00
 -1       416 0.00000E+00
 -1       417 0.00000E+00
 -1       419 0.00000E+00
 -1       420 0.00000E+00
 -1       422 0.00000E+00
 -1       423 0.00000E+00
 -1       425 0.00000E+00
 -1       426 0.00000E+00
 -1       428 0.00000E+00
 -1       429 0.00000E+00
 -1       431 0.00000E+00
 -1       432 0.00000E+00
 -1       434 0.00000E+00
 -1       435 0.00000E+00
 -1       437 0.00000E+00
 -1       438 0.00000E+00
 -1       440 0.00000E+00
 -1       441 0.00000E+00
 -1       443 0.00000E+00
 -1       444 0.00000E+00
 -1       446 0.00000E+00
 -1       447 0.00000E+00
 -1       449 0.00000E+00
 -1       450 0.00000E+00
 -1       452 0.00000E+00
 -1       461 0.00000E+00
 -1       463 0.00000E+00
 -1       464 0.00000E+00
 -1       466 0.00000E+00
 -1       475 0.00000E+00
 -1       477 0.00000E+00
 -1       478 0.00000E+00
 -1       480 0.00000E+00
 -1       489 0.00000E+00
 -1       491 0.00000E+00
 -1       492 0.00000E+00
 -1       494 0.00000E+00
 -1       503 0.00000E+00
 -1       505 0.00000E+00
 -1       506 0.00000E+00
 -1       508 0.00000E+00
 -1       517 0.00000E+00
 -1       519 0.00000E+00
 -1       520 0.00000E+00
 -1       522 0.00000E+00
 -1       531 0.00000E+00
 -1       533 0.00000E+00
 -1       534 0.00000E+00
 -1       536 0.00000E+00
 -1       545 0.00000E+00
 -1       547 0.00000E+00
 -1       548 0.00000E+00
 -1       550 0.00000E+00
 -1       559 0.00000E+00
 -1       561 0.00000E+00
 -1       562 0.00000E+00
 -1       564 0.00000E+00
 -1       573 0.00000E+00
 -1       575 0.00000E+00
 -1       576 0.00000E+00
 -1       578 0.00000E+00
 -1       587 0.00000E+00
 -1       589 0.00000E+00
 -1       590 0.00000E+00
 -1       592 0.00000E+00
 -1       601 0.00000E+00
 -1       603 0.00000E+00
 -1       604 0.00000E+00
 -1       606 0.00000E+00
 -1       615 0.00000E+00
 -1       617 0.00000E+00
 -1       618 0.00000E+00
 -1       620 0.00000E+00
 -1       629 0.00000E+00
 -1       631 0.00000E+00
 -1       632 0.00000E+00
 -1       634 0.00000E+00
 -1       643 0.00000E+00
 -1       645 0.00000E+00
 -1       646 0.00000E+00
 -1       648 0.00000E+00
 -1       657 0.00000E+00
 -1       659 0.00000E+00
 -1       660 0.00000E+00
 -1       662 0.00000E+00
 -1       671 0.00000E+00
 -1       673 0.00000E+00
 -1       674 0.00000E+00
 -1       676 0.00000E+00
 -1       685 0.00000E+00
 -1       687 0.00000E+00
 -1       688 0.00000E+00
 -1       690 0.00000E+00
 -1       699 0.00000E+00
 -1       701 0.00000E+00
 -1       702 0.00000E+00
 -1       704 0.00000E+00
 -1       713 0.00000E+00
 -1       715 0.00000E+00
 -1       716 0.00000E+00
 -1       718 0.00000E+00
 -1       727 0.00000E+00
 -1       729 0.00000E+00
 -1       730 0.00000E+00
 -1       732 0.00000E+00
 -1       741 0.00000E+00
 -1       743 0.00000E+00
 -1       744 0.00000E+00
 -1       746 0.00000E+00
 -1       755 0.00000E+00
 -1       757 0.00000E+00
 -1       758 0.00000E+00
 -1       760 0.00000E+00
 -1       769 0.00000E+00
 -1       771 0.00000E+00
 -1       772 0.00000E+00
 -1       774 0.00000E+00
 -1       783 0.00000E+00
 -1       785 0.00000E+00
 -1       786 0.00000E+00
 -1       788 0.00000E+00
 -1       797 0.00000E+00
 -1       799 0.00000E+00
 -1       800 0.00000E+00
 -1       802 0.00000E+00
 -1       811 0.00000E+00
 -1       813 0.00000E+00
 -1       814 0.00000E+00
 -1       816 0.00000E+00
 -1       825 0.00000E+00
 -1       827 0.00000E+00
 -1       828 0.00000E+00
 -1       830 0.00000E+00
 -1       839 0.00000E+00
 -1       841 0.00000E+00
 -1       842 0.00000E+00
 -1       844 0.00000E+00
 -1       853 0.00000E+00
 -1       855 0.00000E+00
 -1       856 0.00000E+00
 -1       858 0.00000E+00
 -1       859 0.00000E+00
 -1       861 0.00000E+00
 -1       862 0.00000E+00
 -1       864 0.00000E+00
 -1       865 0.00000E+00
 -1       867 0.00000E+00
 -1       868 0.00000E+00
 -1       870 0.00000E+00
 -1       871 0.00000E+00
 -1       873 0.00000E+00
 -1       874 0.00000E+00
 -1       876 0.00000E+00
 -1       877 0.00000E+00
 -1       879 0.00000E+00
 -1       880 0.00000E+00
 -1       882 0.00000E+00
 -1       883 0.00000E+00
 -1       885 0.00000E+00
 -1       886 0.00000E+00
 -1       888 0.00000E+00
 -1       889 0.00000E+00
 -1       891 0.00000E+00
 -1       892 0.00000E+00
 -1       894 0.00000E+00
 -1       895 0.00000E+00
 -1       897 0.00000E+00
 -1       898 0.00000E+00
 -1       900 0.00000E+00
 -1       901 0.00000E+00
 -1       903 0.00000E+00
 -1       904 0.00000E+00
 -1       906 0.00000E+00
 -1       907 0.00000E+00
 -1       909 0.00000E+00
 -1       910 0.00000E+00
 -1       912 0.00000E+00
 -1       913 0.00000E+00
 -1       915 0.00000E+00
 -1       916 0.00000E+00
 -1       918 0.00000E+00
 -1       919 0.00000E+00
 -1       921 0.00000E+00
 -1       922 0.00000E+00
 -1       924 0.00000E+00
 -1       925 0.00000E+00
 -1       927 0.00000E+00
 -1       928 0.00000E+00
 -1       930 0.00000E+00
 -1       931 0.00000E+00
 -1       933 0.00000E+00
 -1       934 0.00000E+00
 -1       936 0.00000E+00
 -1       937 0.00000E+00
 -1       939 0.00000E+00
 -1       940 0.00000E+00
 -1       942 0.00000E+00
 -1       943 0.00000E+00
 -1       945 0.00000E+00
 -1       946 0.00000E+00
 -1       948 0.00000E+00
 -1       949 0.00000E+00
 -1       951 0.00000E+00
 -1       952 0.00000E+00
 -1       954 0.00000E+00
 -1       963 0.00000E+00
 -1       965 0.00000E+00
 -1       966 0.00000E+00
 -1       968 0.00000E+00
 -1       977 0.00000E+00
 -1       979 0.00000E+00
 -1       980 0.00000E+00
 -1       982 0.00000E+00
 -1       991 0.00000E+00
 -1       993 0.00000E+00
 -1       994 0.00000E+00
 -1       996 0.00000E+00
 -1      1005 0.00000E+00
 -1      1007 0.00000E+00
 -1      1008 0.00000E+00
 -1      1010 0.00000E+00
 -1      1019 0.00000E+00
 -1      1021 0.00000E+00
 -1      1022 0.00000E+00
 -1      1024 0.00000E+00
 -1      1033 0.00000E+00
 -1      1035 0.00000E+00
 -1      1036 0.00000E+00
 -1      1038 0.00000E+00
 -1      1047 0.00000E+00
 -1      1049 0.00000E+00
 -1      1050 0.00000E+00
 -1      1052 0.00000E+00
 -1      1061 0.00000E+00
 -1      1063 0.00000E+00
 -1      1064 0.00000E+00
 -1      1066 0.00000E+00
 -1      1075 0.00000E+00
 -1      1077 0.00000E+00
 -1      1078 0.00000E+00
 -1      1080 0.00000E+00
 -1      1089 0.00000E+00
 -1      1091 0.00000E+00
 -1      1092 0.00000E+00
 -1      1094 0.00000E+00
 -1      1103 0.00000E+00
 -1      1105 0.00000E+00
 -1      1106 0.00000E+00
 -1      1108 0.00000E+00
 -1      1117 0.00000E+00
 -1      1119 0.00000E+00
 -1      1120 0.00000E+00
 -1      1122 0.00000E+00
 -1      1131 0.00000E+00
 -1      1133 0.00000E+00
 -1      1134 0.00000E+00
 -1      1136 0.00000E+00
 -1      1145 0.00000E+00
 -1      1147 0.00000E+00
 -1      1148 0.00000E+00
 -1      1150 0.00000E+00
 -1      1159 0.00000E+00
 -1      1161 0.00000E+00
 -1      1162 0.00000E+00
 -1      1164 0.00000E+00
 -1      1173 0.00000E+00
 -1      1175 0.00000E+00
 -1      1176 0.00000E+00
 -1      1178 0.00000E+00
 -1      1187 0.00000E+00
 -1      1189 0.00000E+00
 -1      1190 0.00000E+00
 -1      1192 0.00000E+00
 -1      1201 0.00000E+00
 -1      1203 0.00000E+00
 -1      1204 0.00000E+00
 -1      1206 0.00000E+00
 -1      1215 0.00000E+00
 -1      1217 0.00000E+00
 -1      1218 0.00000E+00
 -1      1220 0.00000E+00
 -1      1229 0.00000E+00
 -1      1231 0.00000E+00
 -1      1232 0.00000E+00
 -1      1234 0.00000E+00
 -1      1243 0.00000E+00
 -1      1245 0.00000E+00
 -1      1246 0.00000E+00
 -1      1248 0.00000E+00
 -1      1257 0.00000E+00
 -1      1259 0.00000E+00
 -1      1260 0.00000E+00
 -1      1262 0.00000E+00
 -1      1271 0.00000E+00
 -1      1273 0.00000E+00
 -1      1274 0.00000E+00
 -1      1276 0.00000E+00
 -1      1285 0.00000E+00
 -1      1287 0.00000E+00
 -1      1288 0.00000E+00
 -1      1290 0.00000E+00
 -1      1299 0.00000E+00
 -1      1301 0.00000E+00
 -1      1302 0.00000E+00
 -1      1304 0.00000E+00
 -1      1313 0.00000E+00
 -1      1315 0.00000E+00
 -1      1316 0.00000E+00
 -1      1318 0.00000E+00
 -1      1327 0.00000E+00
 -1      1329 0.00000E+00
 -1      1330 0.00000E+00
 -1      1332 0.00000E+00
 -1      1341 0.00000E+00
 -1      1343 0.00000E+00
 -1      1344 0.00000E+00
 -1      1346 0.00000E+00
 -1      1355 0.00000E+00
 -1      1357 0.00000E+00
 -1      1358 0.00000E+00
 -1      1360 0.00000E+00
 -1      1361 0.00000E+00
 -1      1363 0.00000E+00
 -1      1364 0.00000E+00
 -1      1366 0.00000E+00
 -1      1367 0.00000E+00
 -1      1369 0.00000E+00
 -1      1370 0.00000E+00
 -1      1372 0.00000E+00
 -1      1373 0.00000E+00
 -1      1375 0.00000E+00
 -1      1376 0.00000E+00
 -1      1378 0.00000E+00
 -1      1379 0.00000E+00
 -1      1381 0.00000E+00
 -1      1382 0.00000E+00
 -1      1384 0.00000E+00
 -1      1385 0.00000E+00
 -1      1387 0.00000E+00
 -1      1388 0.00000E+00
 -1      1390 0.00000E+00
 -1      1391 0.00000E+00
 -1      1393 0.00000E+00
 -1      1394 0.00000E+00
 -1      1396 0.00000E+00
 -1      1397 0.00000E+00
 -1      1399 0.00000E+00
 -1      1400 0.00000E+00
 -1      1402 0.00000E+00
 -1      1403 0.00000E+00
 -1      1405 0.00000E+00
 -1      1406 0.00000E+00
 -1      1408 0.00000E+00
 -1      1409 0.00000E+00
 -1      1411 0.00000E+00
 -1      1412 0.00000E+00
 -1      1414 0.00000E+00
 -1      1415 0.00000E+00
 -1      1417 0.00000E+00
 -1      1418 0.00000E+00
 -1      1420 0.00000E+00
 -1      1421 0.00000E+00
 -1      1423 0.00000E+00
 -1      1424 0.00000E+00
 -1      1426 0.00000E+00
 -1      1427 0.00000E+00
 -1      1429 0.00000E+00
 -1      1430 0.00000E+00
 -1      1432 0.00000E+00
 -1      1433 0.00000E+00
 -1      1435 0.00000E+00
 -1      1436 0.00000E+00
 -1      1438 0.00000E+00
 -1      1439 0.00000E+00
 -1      1441 0.00000E+00
 -1      1442 0.00000E+00
 -1      1444 0.00000E+00
 -1      1445 0.00000E+00
 -1      1447 0.00000E+00
 -1      1448 0.00000E+00
 -1      1450 0.00000E+00
 -1      1451 0.00000E+00
 -1      1453 0.00000E+00
 -1      1454 0.00000E+00
 -1      1456 0.00000E+00
 -1      1457 0.00000E+00
 -1      1459 0.00000E+00
 -1      1460 0.00000E+00
 -1      1462 0.00000E+00
 -1      1463 0.00000E+00
 -1      1465 0.00000E+00
 -1      1466 0.00000E+00
 -1      1468 0.00000E+00
 -1      1469 0.00000E+00
 -1      1471 0.00000E+00
 -1      1472 0.00000E+00
 -1      1474 0.00000E+00
 -1      1475 0.00000E+00
 -1      1477 0.00000E+00
 -1      1478 0.00000E+00
 -1      1480 0.00000E+00
 -1      1481 0.00000E+00
 -1      1483 0.00000E+00
 -1      1484 0.00000E+00
 -1      1486 0.00000E+00
 -1      1487 0.00000E+00
 -1      1489 0.00000E+00
 -1      1490 0.00000E+00
 -1      1492 0.00000E+00
 -1      1493 0.00000E+00
 -1      1495 0.00000E+00
 -1      1496 0.00000E+00
 -1      1498 0.00000E+00
 -1      1499 0.00000E+00
 -1      1501 0.00000E+00
 -1      1502 0.00000E+00
 -1      1504 0.00000E+00
 -1      1505 0.00000E+00
 -1      1507 0.00000E+00
 -1      1508 0.00000E+00
 -1      1510 0.00000E+00
 -1      1511 0.00000E+00
 -1      1513 0.00000E+00
 -1      1514 0.00000E+00
 -1      1516 0.00000E+00
 -1      1517 0.00000E+00
 -1      1519 0.00000E+00
 -1      1520 0.00000E+00
 -1      1522 0.00000E+00
 -1      1523 0.00000E+00
 -1      1525 0.00000E+00
 -1      1526 0.00000E+00
 -1      1528 0.00000E+00
 -1      1529 0.00000E+00
 -1      1531 0.00000E+00
 -1      1532 0.00000E+00
 -1      1534 0.00000E+00
 -1      1535 0.00000E+00
 -1      1537 0.00000E+00
 -1      1538 0.00000E+00
 -1      1540 0.00000E+00
 -1      1541 0.00000E+00
 -1      1543 0.00000E+00
 -1      1544 0.00000E+00
 -1      1546 0.00000E+00
 -1      1547 0.00000E+00
 -1      1549 0.00000E+00
 -1      1550 0.00000E+00
 -1      1552 0.00000E+00
 -1      1553 0.00000E+00
 -1      1555 0.00000E+00
 -1      1556 0.00000E+00
 -1      1558 0.00000E+00
 -1      1559 0.00000E+00
 -1      1561 0.00000E+00
 -1      1562 0.00000E+00
 -1      1564 0.00000E+00
 -1      1565 0.00000E+00
 -1      1567 0.00000E+00
 -1      1568 0.00000E+00
 -1      1570 0.00000E+00
 -1      1571 0.00000E+00
 -1      1573 0.00000E+00
 -1      1574 0.00000E+00
 -1      1576 0.00000E+00
 -1      1577 0.00000E+00
 -1      1579 0.00000E+00
 -1      1580 0.00000E+00
 -1      1582 0.00000E+00
 -1      1583 0.00000E+00
 -1      1585 0.00000E+00
 -1      1586 0.00000E+00
 -1      1588 0.00000E+00
 -1      1589 0.00000E+00
 -1      1591 0.00000E+00
 -1      1592 0.00000E+00
 -1      1594 0.00000E+00
 -1      1595 0.00000E+00
 -1      1597 0.00000E+00
 -1      1598 0.00000E+00
 -1      1600 0.00000E+00
 -1      1601 0.00000E+00
 -1      1603 0.00000E+00
 -1      1604 0.00000E+00
 -1      1606 0.00000E+00
 -1      1607 0.00000E+00
 -1      1609 0.00000E+00
 -1      1610 0.00000E+00
 -1      1612 0.00000E+00
 -1      1613 0.00000E+00
 -1      1615 0.00000E+00
 -1      1616 0.00000E+00
 -1      1618 0.00000E+00
 -1      1619 0.00000E+00
 -1      1621 0.00000E+00
 -1      1622 0.00000E+00
 -1      1624 0.00000E+00
 -1      1625 0.00000E+00
 -1      1627 0.00000E+00
 -1      1628 0.00000E+00
 -1      1630 0.00000E+00
 -1      1631 0.00000E+00
 -1      1633 0.00000E+00
 -1      1634 0.00000E+00
 -1      1636 0.00000E+00
 -1      1637 0.00000E+00
 -1      1639 0.00000E+00
 -1      1640 0.00000E+00
 -1      1642 0.00000E+00
 -1      1643 0.00000E+00
 -1      1645 0.00000E+00
 -1      1646 0.00000E+00
 -1      1648 0.00000E+00
 -1      1649 0.00000E+00
 -1      1651 0.00000E+00
 -1      1652 0.00000E+00
 -1      1654 0.00000E+00
 -1      1655 0.00000E+00
 -1      1657 0.00000E+00
 -1      1658 0.00000E+00
 -1      1660 0.00000E+00
 -1      1661 0.00000E+00
 -1      1663 0.00000E+00
 -1      1664 0.00000E+00
 -1      1666 0.00000E+00
 -1      1667 0.00000E+00
 -1      1669 0.00000E+00
 -1      1670 0.00000E+00
 -1      1672 0.00000E+00
 -1      1673 0.00000E+00
 -1      1675 0.00000E+00
 -1      1676 0.00000E+00
 -1      1678 0.00000E+00
 -1      1679 0.00000E+00
 -1      1681 0.00000E+00
 -1      1682 0.00000E+00
 -1      1684 0.00000E+00
 -1      1685 0.00000E+00
 -1      1687 0.00000E+00
 -1      1688 0.00000E+00
 -1      1690 0.00000E+00
 -1      1691 0.00000E+00
 -1      1693 0.00000E+00
 -1      1694 0.00000E+00
 -1      1696 0.00000E+00
 -1      1697 0.00000E+00
 -1      1699 0.00000E+00
 -1      1700 0.00000E+00
 -1      1702 0.00000E+00
 -1      1703 0.00000E+00
 -1      1705 0.00000E+00
 -1      1706 0.00000E+00
 -1      1708 0.00000E+00
 -1      1709 0.00000E+00
 -1      1711 0.00000E+00
 -1      1712 0.00000E+00
 -1      1714 0.00000E+00
 -1      1715 0.00000E+00
 -1      1717 0.00000E+00
 -1      1718 0.00000E+00
 -1      1720 0.00000E+00
 -1      1721 0.00000E+00
 -1      1723 0.00000E+00
 -1      1724 0.00000E+00
 -1      1726 0.00000E+00
 -1      1727 0.00000E+00
 -1      1729 0.00000E+00
 -1      1730 0.00000E+00
 -1      1732 0.00000E+00
 -1      1733 0.00000E+00
 -1      1735 0.00000E+00
 -1      1736 0.00000E+00
 -1      1738 0.00000E+00
 -1      1739 0.00000E+00
 -1      1741 0.00000E+00
 -1      1742 0.00000E+00
 -1      1744 0.00000E+00
 -1      1745 0.00000E+00
 -1      1747 0.00000E+00
 -1      1748 0.00000E+00
 -1      1750 0.00000E+00
 -1      1751 0.00000E+00
 -1      1753 0.00000E+00
 -1      1754 0.00000E+00
 -1      1756 0.00000E+00
 -1      1757 0.00000E+00
 -1      1759 0.00000E+00
 -1      1760 0.00000E+00
 -1      1762 0.00000E+00
 -1      1763 0.00000E+00
 -1      1765 0.00000E+00
 -1      1766 0.00000E+00
 -1      1768 0.00000E+00
 -1      1769 0.00000E+00
 -1      1771 0.00000E+00
 -1      1772 0.00000E+00
 -1      1774 0.00000E+00
 -1      1775 0.00000E+00
 -1      1777 0.00000E+00
 -1      1778 0.00000E+00
 -1      1780 0.00000E+00
 -1      1781 0.00000E+00
 -1      1783 0.00000E+00
 -1      1784 0.00000E+00
 -1      1786 0.00000E+00
 -1      1787 0.00000E+00
 -1      1789 0.00000E+00
 -1      1790 0.00000E+00
 -1      1792 0.00000E+00
 -1      1793 0.00000E+00
 -1      1795 0.00000E+00
 -1      1796 0.00000E+00
 -1      1798 0.00000E+00
 -3
    1PSTEP                         5           1           1          
  100CL  101 50.00000000         682                     0    1           1
 -4  ERROR       1    1
 -5  STR(%)      1    1    0    0
 -1       280 0.00000E+00
 -1       282 0.00000E+00
 -1       283 0.00000E+00
 -1       285 0.00000E+00
 -1       286 0.00000E+00
 -1       288 0.00000E+00
 -1       289 0.00000E+00
 -1       291 0.00000E+00
 -1       300 0.00000E+00
 -1       302 0.00000E+00
 -1       303 0.00000E+00
 -1       305 0.00000E+00
 -1       314 0.00000E+00
 -1       316 0.00000E+00
 -1       317 0.00000E+00
 -1       319 0.00000E+00
 -1       320 0.00000E+00
 -1       322 0.00000E+00
 -1       323 0.00000E+00
 -1       325 0.00000E+00
 -1       334 0.00000E+00
 -1       336 0.00000E+00
 -1       337 0.00000E+00
 -1       339 0.00000E+00
 -1       348 0.00000E+00
 -1       350 0.00000E+00
 -1       351 0.00000E+00
 -1       353 0.00000E+00
 -1       354 0.00000E+00
 -1       356 0.00000E+00
 -1       357 0.00000E+00
 -1       359 0.00000E+00
 -1       360 0.00000E+00
 -1       362 0.00000E+00
 -1       363 0.00000E+00
 -1       365 0.00000E+00
 -1       366 0.00000E+00
 -1       368 0.00000E+00
 -1       369 0.00000E+00
 -1       371 0.00000E+00
 -1       372 0.00000E+00
 -1       374 0.00000E+00
 -1       375 0.00000E+00
 -1       377 0.00000E+00
 -1       378 0.00000E+00
 -1       380 0.00000E+00
 -1       381 0.00000E+00
 -1       383 0.00000E+00
 -1       384 0.00000E+00
 -1       386 0.00000E+00
 -1       387 0.00000E+00
 -1       389 0.00000E+00
 -1       390 0.00000E+00
 -1       392 0.00000E+00
 -1       393 0.00000E+00
 -1       395 0.00000E+00
 -1       396 0.00000E+00
 -1       398 0.00000E+00
 -1       399 0.00000E+00
 -1       401 0.00000E+00
 -1       402 0.00000E+00
 -1       404 0.00000E+00
 -1       405 0.00000E+00
 -1       407 0.00000E+00
 -1       408 0.00000E+00
 -1       410 0.00000E+00
 -1       411 0.00000E+00
 -1       413 0.00000E+00
 -1       414 0.00000E+00
 -1       416 0.00000E+00
 -1       417 0.00000E+00
 -1       419 0.00000E+00
 -1       420 0.00000E+00
 -1       422 0.00000E+00
 -1       423 0.00000E+00
 -1       425 0.00000E+00
 -1       426 0.00000E+00
 -1       428 0.00000E+00
 -1       429 0.00000E+00
 -1       431 0.00000E+00
 -1       432 0.00000E+00
 -1       434 0.00000E+00
 -1       435 0.00000E+00
 -1       437 0.00000E+00
 -1       438 0.00000E+00
 -1       440 0.00000E+00
 -1       441 0.00000E+00
 -1       443 0.00000E+00
 -1       444 0.00000E+00
 -1       446 0.00000E+00
 -1       447 0.00000E+00
 -1       449 0.00000E+00
 -1       450 0.00000E+00
 -1       452 0.00000E+00
 -1       461 0.00000E+00
 -1       463 0.00000E+00
 -1       464 0.00000E+00
 -1       466 0.00000E+00
 -1       475 0.00000E+00
 -1       477 0.00000E+00
 -1       478 0.00000E+00
 -1       480 0.00000E+00
 -1       489 0.00000E+00
 -1       491 0.00000E+00
 -1       492 0.00000E+00
 -1       494 0.00000E+00
 -1       503 0.00000E+00
 -1       505 0.00000E+00
 -1       506 0.00000E+00
 -1       508 0.00000E+00
 -1       517 0.00000E+00
 -1       519 0.00000E+00
 -1       520 0.00000E+00
 -1       522 0.00000E+00
 -1       531 0.00000E+00
 -1       533 0.00000E+00
 -1       534 0.00000E+00
 -1       536 0.00000E+00
 -1       545 0.00000E+00
 -1       547 0.00000E+00
 -1       548 0.00000E+00
 -1       550 0.00000E+00
 -1       559 0.00000E+00
 -1       561 0.00000E+00
 -1       562 0.00000E+00
 -1       564 0.00000E+00
 -1       573 0.00000E+00
 -1       575 0.00000E+00
 -1       576 0.00000E+00
 -1       578 0.00000E+00
 -1       587 0.00000E+00
 -1       589 0.00000E+00
 -1       590 0.00000E+00
 -1       592 0.00000E+00
 -1       601 0.00000E+00
 -1       603 0.00000E+00
 -1       604 0.00000E+00
 -1       606 0.00000E+00
 -1       615 0.00000E+00
 -1       617 0.00000E+00
 -1       618 0.00000E+00
 -1       620 0.00000E+00
 -1       629 0.00000E+00
 -1       631 0.00000E+00
 -1       632 0.00000E+00
 -1       634 0.00000E+00
 -1       643 0.00000E+00
 -1       645 0.00000E+00
 -1       646 0.00000E+00
 -1       648 0.00000E+00
 -1       657 0.00000E+00
 -1       659 0.00000E+00
 -1       660 0.00000E+00
 -1       662 0.00000E+00
 -1       671 0.00000E+00
 -1       673 0.00000E+00
 -1       674 0.00000E+00
 -1       676 0.00000E+00
 -1       685 0.00000E+00
 -1       687 0.00000E+00
 -1       688 0.00000E+00
 -1       690 0.00000E+00
 -1       699 0.00000E+00
 -1       701 0.00000E+00
 -1       702 0.00000E+00
 -1       704 0.00000E+00
 -1       713 0.00000E+00
 -1       715 0.00000E+00
 -1       716 0.00000E+00
 -1       718 0.00000E+00
 -1       727 0.00000E+00
 -1       729 0.00000E+00
 -1       730 0.00000E+00
 -1       732 0.00000E+00
 -1       741 0.00000E+00
 -1       743 0.00000E+00
 -1       744 0.00000E+00
 -1       746 0.00000E+00
 -1       755 0.00000E+00
 -1       757 0.00000E+00
 -1       758 0.00000E+00
 -1       760 0.00000E+00
 -1       769 0.00000E+00
 -1       771 0.00000E+00
 -1       772 0.00000E+00
 -1       774 0.00000E+00
 -1       783 0.00000E+00
 -1       785 0.00000E+00
 -1       786 0.00000E+00
 -1       788 0.00000E+00
 -1       797 0.00000E+00
 -1       799 0.00000E+00
 -1       800 0.00000E+00
 -1       802 0.00000E+00
 -1       811 0.00000E+00
 -1       813 0.00000E+00
 -1       814 0.00000E+00
 -1       816 0.00000E+00
 -1       825 0.00000E+00
 -1       827 0.00000E+00
 -1       828 0.00000E+00
 -1       830 0.00000E+00
 -1       839 0.00000E+00
 -1       841 0.00000E+00
 -1       842 0.00000E+00
 -1       844 0.00000E+00
 -1       853 0.00000E+00
 -1       855 0.00000E+00
 -1       856 0.00000E+00
 -1       858 0.00000E+00
 -1       859 0.00000E+00
 -1       861 0.00000E+00
 -1       862 0.00000E+00
 -1       864 0.00000E+00
 -1       865 0.00000E+00
 -1       867 0.00000E+00
 -1       868 0.00000E+00
 -1       870 0.00000E+00
 -1       871 0.00000E+00
 -1       873 0.00000E+00
 -1       874 0.00000E+00
 -1       876 0.00000E+00
 -1       877 0.00000E+00
 -1       879 0.00000E+00
 -1       880 0.00000E+00
 -1       882 0.00000E+00
 -1       883 0.00000E+00
 -1       885 0.00000E+00
 -1       886 0.00000E+00
 -1       888 0.00000E+00
 -1       889 0.00000E+00
 -1       891 0.00000E+00
 -1       892 0.00000E+00
 -1       894 0.00000E+00
 -1       895 0.00000E+00
 -1       897 0.00000E+00
 -1       898 0.00000E+00
 -1       900 0.00000E+00
 -1       901 0.00000E+00
 -1       903 0.00000E+00
 -1       904 0.00000E+00
 -1       906 0.00000E+00
 -1       907 0.00000E+00
 -1       909 0.00000E+00
 -1       910 0.00000E+00
 -1       912 0.00000E+00
 -1       913 0.00000E+00
 -1       915 0.00000E+00
 -1       916 0.00000E+00
 -1       918 0.00000E+00
 -1       919 0.00000E+00
 -1       921 0.00000E+00
 -1       922 0.00000E+00
 -1       924 0.00000E+00
 -1       925 0.00000E+00
 -1       927 0.00000E+00
 -1       928 0.00000E+00
 -1       930 0.00000E+00
 -1       931 0.00000E+00
 -1       933 0.00000E+00
 -1       934 0.00000E+00
 -1       936 0.00000E+00
 -1       937 0.00000E+00
 -1       939 0.00000E+00
 -1       940 0.00000E+00
 -1       942 0.00000E+00
 -1       943 0.00000E+00
 -1       945 0.00000E+00
 -1       946 0.00000E+00
 -1       948 0.00000E+00
 -1       949 0.00000E+00
 -1       951 0.00000E+00
 -1       952 0.00000E+00
 -1       954 0.00000E+00
 -1       963 0.00000E+00
 -1       965 0.00000E+00
 -1       966 0.00000E+00
 -1       968 0.00000E+00
 -1       977 0.00000E+00
 -1       979 0.00000E+00
 -1       980 0.00000E+00
 -1       982 0.00000E+00
 -1       991 0.00000E+00
 -1       993 0.00000E+00
 -1       994 0.00000E+00
 -1       996 0.00000E+00
 -1      1005 0.00000E+00
 -1      1007 0.00000E+00
 -1      1008 0.00000E+00
 -1      1010 0.00000E+00
 -1      1019 0.00000E+00
 -1      1021 0.00000E+00
 -1      1022 0.00000E+00
 -1      1024 0.00000E+00
 -1      1033 0.00000E+00
 -1      1035 0.00000E+00
 -1      1036 0.00000E+00
 -1      1038 0.00000E+00
 -1      1047 0.00000E+00
 -1      1049 0.00000E+00
 -1      1050 0.00000E+00
 -1      1052 0.00000E+00
 -1      1061 0.00000E+00
 -1      1063 0.00000E+00
 -1      1064 0.00000E+00
 -1      1066 0.00000E+00
 -1      1075 0.00000E+00
 -1      1077 0.00000E+00
 -1      1078 0.00000E+00
 -1      1080 0.00000E+00
 -1      1089 0.00000E+00
 -1      1091 0.00000E+00
 -1      1092 0.00000E+00
 -1      1094 0.00000E+00
 -1      1103 0.00000E+00
 -1      1105 0.00000E+00
 -1      1106 0.00000E+00
 -1      1108 0.00000E+00
 -1      1117 0.00000E+00
 -1      1119 0.00000E+00
 -1      1120 0.00000E+00
 -1      1122 0.00000E+00
 -1      1131 0.00000E+00
 -1      1133 0.00000E+00
 -1      1134 0.00000E+00
 -1      1136 0.00000E+00
 -1      1145 0.00000E+00
 -1      1147 0.00000E+00
 -1      1148 0.00000E+00
 -1      1150 0.00000E+00
 -1      1159 0.00000E+00
 -1      1161 0.00000E+00
 -1      1162 0.00000E+00
 -1      1164 0.00000E+00
 -1      1173 0.00000E+00
 -1      1175 0.00000E+00
 -1      1176 0.00000E+00
 -1      1178 0.00000E+00
 -1      1187 0.00000E+00
 -1      1189 0.00000E+00
 -1      1190 0.00000E+00
 -1      1192 0.00000E+00
 -1      1201 0.00000E+00
 -1      1203 0.00000E+00
 -1      1204 0.00000E+00
 -1      1206 0.00000E+00
 -1      1215 0.00000E+00
 -1      1217 0.00000E+00
 -1      1218 0.00000E+00
 -1      1220 0.00000E+00
 -1      1229 0.00000E+00
 -1      1231 0.00000E+00
 -1      1232 0.00000E+00
 -1      1234 0.00000E+00
 -1      1243 0.00000E+00
 -1      1245 0.00000E+00
 -1      1246 0.00000E+00
 -1      1248 0.00000E+00
 -1      1257 0.00000E+00
 -1      1259 0.00000E+00
 -1      1260 0.00000E+00
 -1      1262 0.00000E+00
 -1      1271 0.00000E+00
 -1      1273 0.00000E+00
 -1      1274 0.00000E+00
 -1      1276 0.00000E+00
 -1      1285 0.00000E+00
 -1      1287 0.00000E+00
 -1      1288 0.00000E+00
 -1      1290 0.00000E+00
 -1      1299 0.00000E+00
 -1      1301 0.00000E+00
 -1      1302 0.00000E+00
 -1      1304 0.00000E+00
 -1      1313 0.00000E+00
 -1      1315 0.00000E+00
 -1      1316 0.00000E+00
 -1      1318 0.00000E+00
 -1      1327 0.00000E+00
 -1      1329 0.00000E+00
 -1      1330 0.00000E+00
 -1      1332 0.00000E+00
 -1      1341 0.00000E+00
 -1      1343 0.00000E+00
 -1      1344 0.00000E+00
 -1      1346 0.00000E+00
 -1      1355 0.00000E+00
 -1      1357 0.00000E+00
 -1      1358 0.00000E+00
 -1      1360 0.00000E+00
 -1      1361 0.00000E+00
 -1      1363 0.00000E+00
 -1      1364 0.00000E+00
 -1      1366 0.00000E+00
 -1      1367 0.00000E+00
 -1      1369 0.00000E+00
 -1      1370 0.00000E+00
 -1      1372 0.00000E+00
 -1      1373 0.00000E+00
 -1      1375 0.00000E+00
 -1      1376 0.00000E+00
 -1      1378 0.00000E+00
 -1      1379 0.00000E+00
 -1      1381 0.00000E+00
 -1      1382 0.00000E+00
 -1      1384 0.00000E+00
 -1      1385 0.00000E+00
 -1      1387 0.00000E+00
 -1      1388 0.00000E+00
 -1      1390 0.00000E+00
 -1      1391 0.00000E+00
 -1      1393 0.00000E+00
 -1      1394 0.00000E+00
 -1      1396 0.00000E+00
 -1      1397 0.00000E+00
 -1      1399 0.00000E+00
 -1      1400 0.00000E+00
 -1      1402 0.00000E+00
 -1      1403 0.00000E+00
 -1      1405 0.00000E+00
 -1      1406 0.00000E+00
 -1      1408 0.00000E+00
 -1      1409 0.00000E+00
 -1      1411 0.00000E+00
 -1      1412 0.00000E+00
 -1      1414 0.00000E+00
 -1      1415 0.00000E+00
 -1      1417 0.00000E+00
 -1      1418 0.00000E+00
 -1      1420 0.00000E+00
 -1      1421 0.00000E+00
 -1      1423 0.00000E+00
 -1      1424 0.00000E+00
 -1      1426 0.00000E+00
 -1      1427 0.00000E+00
 -1      1429 0.00000E+00
 -1      1430 0.00000E+00
 -1      1432 0.00000E+00
 -1      1433 0.00000E+00
 -1      1435 0.00000E+00
 -1      1436 0.00000E+00
 -1      1438 0.00000E+00
 -1      1439 0.00000E+00
 -1      1441 0.00000E+00
 -1      1442 0.00000E+00
 -1      1444 0.00000E+00
 -1      1445 0.00000E+00
 -1      1447 0.00000E+00
 -1      1448 0.00000E+00
 -1      1450 0.00000E+00
 -1      1451 0.00000E+00
 -1      1453 0.00000E+00
 -1      1454 0.00000E+00
 -1      1456 0.00000E+00
 -1      1457 0.00000E+00
 -1      1459 0.00000E+00
 -1      1460 0.00000E+00
 -1      1462 0.00000E+00
 -1      1463 0.00000E+00
 -1      1465 0.00000E+00
 -1      1466 0.00000E+00
 -1      1468 0.00000E+00
 -1      1469 0.00000E+00
 -1      1471 0.00000E+00
 -1      1472 0.00000E+00
 -1      1474 0.00000E+00
 -1      1475 0.00000E+00
 -1      1477 0.00000E+00
 -1      1478 0.00000E+00
 -1      1480 0.00000E+00
 -1      1481 0.00000E+00
 -1      1483 0.00000E+00
 -1      1484 0.00000E+00
 -1      1486 0.00000E+00
 -1      1487 0.00000E+00
 -1      1489 0.00000E+00
 -1      1490 0.00000E+00
 -1      1492 0.00000E+00
 -1      1493 0.00000E+00
 -1      1495 0.00000E+00
 -1      1496 0.00000E+00
 -1      1498 0.00000E+00
 -1      1499 0.00000E+00
 -1      1501 0.00000E+00
 -1      1502 0.00000E+00
 -1      1504 0.00000E+00
 -1      1505 0.00000E+00
 -1      1507 0.00000E+00
 -1      1508 0.00000E+00
 -1      1510 0.00000E+00
 -1      1511 0.00000E+00
 -1      1513 0.00000E+00
 -1      1514 0.00000E+00
 -1      1516 0.00000E+00
 -1      1517 0.00000E+00
 -1      1519 0.00000E+00
 -1      1520 0.00000E+00
 -1      1522 0.00000E+00
 -1      1523 0.00000E+00
 -1      1525 0.00000E+00
 -1      1526 0.00000E+00
 -1      1528 0.00000E+00
 -1      1529 0.00000E+00
 -1      1531 0.00000E+00
 -1      1532 0.00000E+00
 -1      1534 0.00000E+00
 -1      1535 0.00000E+00
 -1      1537 0.00000E+00
 -1      1538 0.00000E+00
 -1      1540 0.00000E+00
 -1      1541 0.00000E+00
 -1      1543 0.00000E+00
 -1      1544 0.00000E+00
 -1      1546 0.00000E+00
 -1      1547 0.00000E+00
 -1      1549 0.00000E+00
 -1      1550 0.00000E+00
 -1      1552 0.00000E+00
 -1      1553 0.00000E+00
 -1      1555 0.00000E+00
 -1      1556 0.00000E+00
 -1      1558 0.00000E+00
 -1      1559 0.00000E+00
 -1      1561 0.00000E+00
 -1      1562 0.00000E+00
 -1      1564 0.00000E+00
 -1      1565 0.00000E+00
 -1      1567 0.00000E+00
 -1      1568 0.00000E+00
 -1      1570 0.00000E+00
 -1      1571 0.00000E+00
 -1      1573 0.00000E+00
 -1      1574 0.00000E+00
 -1      1576 0.00000E+00
 -1      1577 0.00000E+00
 -1      1579 0.00000E+00
 -1      1580 0.00000E+00
 -1      1582 0.00000E+00
 -1      1583 0.00000E+00
 -1      1585 0.00000E+00
 -1      1586 0.00000E+00
 -1      1588 0.00000E+00
 -1      1589 0.00000E+00
 -1      1591 0.00000E+00
 -1      1592 0.00000E+00
 -1      1594 0.00000E+00
 -1      1595 0.00000E+00
 -1      1597 0.00000E+00
 -1      1598 0.00000E+00
 -1      1600 0.00000E+00
 -1      1601 0.00000E+00
 -1      1603 0.00000E+00
 -1      1604 0.00000E+00
 -1      1606 0.00000E+00
 -1      1607 0.00000E+00
 -1      1609 0.00000E+00
 -1      1610 0.00000E+00
 -1      1612 0.00000E+00
 -1      1613 0.00000E+00
 -1      1615 0.00000E+00
 -1      1616 0.00000E+00
 -1      1618 0.00000E+00
 -1      1619 0.00000E+00
 -1      1621 0.00000E+00
 -1      1622 0.00000E+00
 -1      1624 0.00000E+00
 -1      1625 0.00000E+00
 -1      1627 0.00000E+00
 -1      1628 0.00000E+00
 -1      1630 0.00000E+00
 -1      1631 0.00000E+00
 -1      1633 0.00000E+00
 -1      1634 0.00000E+00
 -1      1636 0.00000E+00
 -1      1637 0.00000E+00
 -1      1639 0.00000E+00
 -1      1640 0.00000E+00
 -1      1642 0.00000E+00
 -1      1643 0.00000E+00
 -1      1645 0.00000E+00
 -1      1646 0.00000E+00
 -1      1648 0.00000E+00
 -1      1649 0.00000E+00
 -1      1651 0.00000E+00
 -1      1652 0.00000E+00
 -1      1654 0.00000E+00
 -1      1655 0.00000E+00
 -1      1657 0.00000E+00
 -1      1658 0.00000E+00
 -1      1660 0.00000E+00
 -1      1661 0.00000E+00
 -1      1663 0.00000E+00
 -1      1664 0.00000E+00
 -1      1666 0.00000E+00
 -1      1667 0.00000E+00
 -1      1669 0.00000E+00
 -1      1670 0.00000E+00
 -1      1672 0.00000E+00
 -1      1673 0.00000E+00
 -1      1675 0.00000E+00
 -1      1676 0.00000E+00
 -1      1678 0.00000E+00
 -1      1679 0.00000E+00
 -1      1681 0.00000E+00
 -1      1682 0.00000E+00
 -1      1684 0.00000E+00
 -1      1685 0.00000E+00
 -1      1687 0.00000E+00
 -1      1688 0.00000E+00
 -1      1690 0.00000E+00
 -1      1691 0.00000E+00
 -1      1693 0.00000E+00
 -1      1694 0.00000E+00
 -1      1696 0.00000E+00
 -1      1697 0.00000E+00
 -1      1699 0.00000E+00
 -1      1700 0.00000E+00
 -1      1702 0.00000E+00
 -1      1703 0.00000E+00
 -1      1705 0.00000E+00
 -1      1706 0.00000E+00
 -1      1708 0.00000E+00
 -1      1709 0.00000E+00
 -1      1711 0.00000E+00
 -1      1712 0.00000E+00
 -1      1714 0.00000E+00
 -1      1715 0.00000E+00
 -1      1717 0.00000E+00
 -1      1718 0.00000E+00
 -1      1720 0.00000E+00
 -1      1721 0.00000E+00
 -1      1723 0.00000E+00
 -1      1724 0.00000E+00
 -1      1726 0.00000E+00
 -1      1727 0.00000E+00
 -1      1729 0.00000E+00
 -1      1730 0.00000E+00
 -1      1732 0.00000E+00
 -1      1733 0.00000E+00
 -1      1735 0.00000E+00
 -1      1736 0.00000E+00
 -1      1738 0.00000E+00
 -1      1739 0.00000E+00
 -1      1741 0.00000E+00
 -1      1742 0.00000E+00
 -1      1744 0.00000E+00
 -1      1745 0.00000E+00
 -1      1747 0.00000E+00
 -1      1748 0.00000E+00
 -1      1750 0.00000E+00
 -1      1751 0.00000E+00
 -1      1753 0.00000E+00
 -1      1754 0.00000E+00
 -1      1756 0.00000E+00
 -1      1757 0.00000E+00
 -1      1759 0.00000E+00
 -1      1760 0.00000E+00
 -1      1762 0.00000E+00
 -1      1763 0.00000E+00
 -1      1765 0.00000E+00
 -1      1766 0.00000E+00
 -1      1768 0.00000E+00
 -1      1769 0.00000E+00
 -1      1771 0.00000E+00
 -1      1772 0.00000E+00
 -1      1774 0.00000E+00
 -1      1775 0.00000E+00
 -1      1777 0.00000E+00
 -1      1778 0.00000E+00
 -1      1780 0.00000E+00
 -1      1781 0.00000E+00
 -1      1783 0.00000E+00
 -1      1784 0.00000E+00
 -1      1786 0.00000E+00
 -1      1787 0.00000E+00
 -1      1789 0.00000E+00
 -1      1790 0.00000E+00
 -1      1792 0.00000E+00
 -1      1793 0.00000E+00
 -1      1795 0.00000E+00
 -1      1796 0.00000E+00
 -1      1798 0.00000E+00
 -3
    1PSTEP                         6           2           1          
  100CL  102 100.0000000         682                     0    2           1
 -4  DISP        4    1
 -5  D1          1    2    1    0
 -5  D2          1    2    2    0
 -5  D3          1    2    3    0
 -5  ALL         1    2    0    0    1ALL
 -1       280 0.00000E+00 0.00000E+00-3.59386E-06
 -1       282 0.00000E+00 0.00000E+00 3.59386E-06
 -1       283-9.24797E-04-4.33287E-05-1.06413E-02
 -1       285-8.65068E-04-4.76478E-05-1.06414E-02
 -1       286-9.25743E-04-4.29262E-05-1.06702E-02
 -1       288-8.66505E-04-4.79714E-05-1.06703E-02
 -1       289-8.96201E-04-4.54422E-05-1.06718E-02
 -1       291-8.96047E-04-4.54554E-05-1.06686E-02
 -1       300 0.00000E+00 2.87991E-21-1.74120E-06
 -1       302 0.00000E+00 2.87991E-21 1.74120E-06
 -1       303 0.00000E+00-1.10921E-06 0.00000E+00
 -1       305 0.00000E+00 1.10921E-06 0.00000E+00
 -1       314-9.26333E-04-4.17460E-05-1.07091E-02
 -1       316-8.67351E-04-4.90077E-05-1.07092E-02
 -1       317 0.00000E+00 0.00000E+00-2.47687E-06
 -1       319 0.00000E+00 0.00000E+00 2.47687E-06
 -1       320 0.00000E+00 9.91450E-07 0.00000E+00
 -1       322 0.00000E+00-9.91450E-07 0.00000E+00
 -1       323 0.00000E+00-2.54110E-21-1.55635E-06
 -1       325 0.00000E+00-2.54110E-21 1.55635E-06
 -1       334 8.56176E-04-1.81996E-04-1.06752E-02
 -1       336 8.56316E-04-1.81982E-04-1.06728E-02
 -1       337 8.85750E-04-1.83906E-04-1.06740E-02
 -1       339 8.26742E-04-1.80073E-04-1.06739E-02
 -1       348 0.00000E+00 0.00000E+00-3.51857E-06
 -1       350 0.00000E+00 0.00000E+00 3.51857E-06
 -1       351 8.82361E-04-1.84265E-04-1.07027E-02
 -1       353 8.22544E-04-1.79814E-04-1.07025E-02
 -1       354 8.89333E-04-1.83453E-04-1.06535E-02
 -1       356 8.29619E-04-1.80460E-04-1.06534E-02
 -1       357 0.00000E+00 0.00000E+00-2.67172E-06
 -1       359 0.00000E+00 0.00000E+00 2.67172E-06
 -1       360-8.31499E-05 1.90449E-05-5.88390E-05
 -1       362-6.59488E-05 1.42553E-05-5.66118E-05
 -1       363-1.59774E-04 1.19415E-05-1.90564E-04
 -1       365-1.44774E-04 1.10895E-05-1.88085E-04
 -1       366-2.40074E-04 5.90906E-06-3.39187E-04
 -1       368-2.12577E-04 3.02914E-06-3.36369E-04
 -1       369-3.08738E-04-1.61857E-06-5.25112E-04
 -1       371-2.83489E-04-1.51818E-06-5.22830E-04
 -1       372-3.76235E-04-6.36106E-06-7.33982E-04
 -1       374-3.44618E-04-7.40432E-06-7.31179E-04
 -1       375-4.37062E-04-1.11064E-05-9.74988E-04
 -1       377-4.02770E-04-1.16648E-05-9.72991E-04
 -1       378-4.93994E-04-1.40100E-05-1.24471E-03
 -1       380-4.55264E-04-1.60526E-05-1.24311E-03
 -1       381-5.45163E-04-1.78205E-05-1.53511E-03
 -1       383-5.05035E-04-1.92251E-05-1.53320E-03
 -1       384-5.93048E-04-2.06688E-05-1.84194E-03
 -1       386-5.49408E-04-2.22954E-05-1.84000E-03
 -1       387-6.37063E-04-2.25097E-05-2.17817E-03
 -1       389-5.89523E-04-2.52180E-05-2.17693E-03
 -1       390-6.75399E-04-2.45543E-05-2.53226E-03
 -1       392-6.27182E-04-2.70325E-05-2.53117E-03
 -1       393-7.11103E-04-2.59506E-05-2.89900E-03
 -1       395-6.60011E-04-2.88281E-05-2.89795E-03
 -1       396-7.42561E-04-2.73964E-05-3.28003E-03
 -1       398-6.90319E-04-3.02937E-05-3.27904E-03
 -1       399-7.71320E-04-2.82841E-05-3.67497E-03
 -1       401-7.16906E-04-3.17562E-05-3.67418E-03
 -1       402-7.96140E-04-2.97189E-05-4.07862E-03
 -1       404-7.41272E-04-3.28498E-05-4.07789E-03
 -1       405-8.18578E-04-3.08964E-05-4.48913E-03
 -1       407-7.62169E-04-3.41583E-05-4.48844E-03
 -1       408-8.38352E-04-3.15709E-05-4.91341E-03
 -1       410-7.80220E-04-3.53701E-05-4.91296E-03
 -1       411-8.54557E-04-3.27551E-05-5.34256E-03
 -1       413-7.96751E-04-3.62660E-05-5.34208E-03
 -1       414-8.69038E-04-3.37513E-05-5.77383E-03
 -1       416-8.10218E-04-3.73263E-05-5.77347E-03
 -1       417-8.81361E-04-3.44825E-05-6.21206E-03
 -1       419-8.21693E-04-3.83903E-05-6.21191E-03
 -1       420-8.91153E-04-3.53872E-05-6.65393E-03
 -1       422-8.31676E-04-3.91736E-05-6.65375E-03
 -1       423-8.99478E-04-3.61745E-05-7.09513E-03
 -1       425-8.39811E-04-4.02221E-05-7.09499E-03
 -1       426-9.06561E-04-3.71287E-05-7.53964E-03
 -1       428-8.46160E-04-4.10642E-05-7.53954E-03
 -1       429-9.11803E-04-3.84267E-05-7.98744E-03
 -1       431-8.51141E-04-4.13345E-05-7.98735E-03
 -1       432-9.15392E-04-3.85343E-05-8.43313E-03
 -1       434-8.55472E-04-4.29118E-05-8.43319E-03
 -1       435-9.18665E-04-4.03608E-05-8.87720E-03
 -1       437-8.58498E-04-4.30856E-05-8.87721E-03
 -1       438-9.20745E-04-4.04222E-05-9.32082E-03
 -1       440-8.60942E-04-4.48210E-05-9.32090E-03
 -1       441-9.22299E-04-4.19932E-05-9.76215E-03
 -1       443-8.62881E-04-4.50888E-05-9.76223E-03
 -1       444-9.23488E-04-4.26442E-05-1.02014E-02
 -1       446-8.64328E-04-4.63209E-05-1.02015E-02
 -1       447-9.24480E-05-2.13142E-06-8.09217E-05
 -1       449-7.19241E-05-3.85513E-06-7.60278E-05
 -1       450-8.19177E-05-4.55701E-06-7.90242E-05
 -1       452-8.24544E-05-1.42953E-06-7.79253E-05
 -1       461-1.70098E-04-9.55271E-06-1.95011E-04
 -1       463-1.55010E-04-9.30620E-06-1.91998E-04
 -1       464-1.62814E-04-1.03921E-05-1.93426E-04
 -1       466-1.62294E-04-8.46684E-06-1.93583E-04
 -1       475-2.48257E-04-1.42230E-05-3.50631E-04
 -1       477-2.25842E-04-1.56288E-05-3.47172E-04
 -1       478-2.37078E-04-1.60337E-05-3.49349E-04
 -1       480-2.37022E-04-1.38180E-05-3.48454E-04
 -1       489-3.19180E-04-1.94963E-05-5.27003E-04
 -1       491-2.92913E-04-1.98311E-05-5.24579E-04
 -1       492-3.06078E-04-2.04441E-05-5.25898E-04
 -1       494-3.06016E-04-1.88832E-05-5.25685E-04
 -1       503-3.85049E-04-2.25002E-05-7.41205E-04
 -1       505-3.53980E-04-2.42525E-05-7.38860E-04
 -1       506-3.69628E-04-2.41348E-05-7.40590E-04
 -1       508-3.69401E-04-2.26179E-05-7.39474E-04
 -1       517-4.45311E-04-2.55486E-05-9.84650E-04
 -1       519-4.09985E-04-2.75186E-05-9.82015E-04
 -1       520-4.27722E-04-2.73875E-05-9.83960E-04
 -1       522-4.27574E-04-2.56796E-05-9.82705E-04
 -1       531-5.01387E-04-2.79028E-05-1.25865E-03
 -1       533-4.63055E-04-3.01353E-05-1.25626E-03
 -1       534-4.82194E-04-2.97978E-05-1.25817E-03
 -1       536-4.82248E-04-2.82403E-05-1.25675E-03
 -1       545-5.52089E-04-3.03480E-05-1.54641E-03
 -1       547-5.12366E-04-3.25277E-05-1.54493E-03
 -1       548-5.32327E-04-3.19265E-05-1.54637E-03
 -1       550-5.32129E-04-3.09492E-05-1.54498E-03
 -1       559-5.99668E-04-3.16922E-05-1.85688E-03
 -1       561-5.55400E-04-3.45839E-05-1.85519E-03
 -1       562-5.77618E-04-3.36995E-05-1.85695E-03
 -1       564-5.77450E-04-3.25766E-05-1.85511E-03
 -1       573-6.42600E-04-3.28041E-05-2.19801E-03
 -1       575-5.95139E-04-3.60642E-05-2.19621E-03
 -1       576-6.18868E-04-3.50346E-05-2.19815E-03
 -1       578-6.18872E-04-3.38337E-05-2.19607E-03
 -1       587-6.80745E-04-3.35852E-05-2.55155E-03
 -1       589-6.32076E-04-3.69073E-05-2.54999E-03
 -1       590-6.56359E-04-3.57698E-05-2.55183E-03
 -1       592-6.56461E-04-3.47227E-05-2.54971E-03
 -1       601-7.15601E-04-3.40305E-05-2.92048E-03
 -1       603-6.64921E-04-3.76901E-05-2.91920E-03
 -1       604-6.90268E-04-3.62994E-05-2.92100E-03
 -1       606-6.90253E-04-3.54212E-05-2.91867E-03
 -1       615-7.47232E-04-3.45844E-05-3.30243E-03
 -1       617-6.94374E-04-3.83956E-05-3.30133E-03
 -1       618-7.20778E-04-3.68741E-05-3.30310E-03
 -1       620-7.20828E-04-3.61058E-05-3.30067E-03
 -1       629-7.75295E-04-3.48341E-05-3.69922E-03
 -1       631-7.21204E-04-3.87321E-05-3.69819E-03
 -1       632-7.48353E-04-3.71453E-05-3.69995E-03
 -1       634-7.48146E-04-3.64209E-05-3.69747E-03
 -1       643-8.00028E-04-3.54312E-05-4.10131E-03
 -1       645-7.45408E-04-3.91821E-05-4.10057E-03
 -1       646-7.72770E-04-3.75794E-05-4.10213E-03
 -1       648-7.72666E-04-3.70339E-05-4.09974E-03
 -1       657-8.22499E-04-3.56339E-05-4.51374E-03
 -1       659-7.65545E-04-3.98318E-05-4.51308E-03
 -1       660-7.94033E-04-3.79797E-05-4.51475E-03
 -1       662-7.94011E-04-3.74860E-05-4.51207E-03
 -1       671-8.41668E-04-3.58023E-05-4.94007E-03
 -1       673-7.83753E-04-4.00516E-05-4.93946E-03
 -1       674-8.12755E-04-3.81609E-05-4.94111E-03
 -1       676-8.12667E-04-3.76931E-05-4.93841E-03
 -1       685-8.57770E-04-3.62580E-05-5.36767E-03
 -1       687-7.99923E-04-4.04328E-05-5.36735E-03
 -1       688-8.28886E-04-3.84872E-05-5.36884E-03
 -1       690-8.28806E-04-3.82036E-05-5.36618E-03
 -1       699-8.72028E-04-3.65849E-05-5.80009E-03
 -1       701-8.13138E-04-4.08801E-05-5.79965E-03
 -1       702-8.42596E-04-3.89147E-05-5.80124E-03
 -1       704-8.42570E-04-3.85503E-05-5.79850E-03
 -1       713-8.84098E-04-3.67271E-05-6.24005E-03
 -1       715-8.24277E-04-4.14126E-05-6.23975E-03
 -1       716-8.54166E-04-3.92069E-05-6.24139E-03
 -1       718-8.54209E-04-3.89328E-05-6.23841E-03
 -1       727-8.93716E-04-3.71957E-05-6.68154E-03
 -1       729-8.34146E-04-4.16000E-05-6.68135E-03
 -1       730-8.63959E-04-3.95011E-05-6.68285E-03
 -1       732-8.63903E-04-3.92946E-05-6.68004E-03
 -1       741-9.01991E-04-3.75249E-05-7.12374E-03
 -1       743-8.42032E-04-4.23576E-05-7.12368E-03
 -1       744-8.72007E-04-4.00014E-05-7.12525E-03
 -1       746-8.72015E-04-3.98811E-05-7.12217E-03
 -1       755-9.08350E-04-3.79915E-05-7.56898E-03
 -1       757-8.48347E-04-4.26754E-05-7.56890E-03
 -1       758-8.78356E-04-4.04029E-05-7.57043E-03
 -1       760-8.78341E-04-4.02639E-05-7.56745E-03
 -1       769-9.13503E-04-3.83670E-05-8.01420E-03
 -1       771-8.53383E-04-4.32375E-05-8.01427E-03
 -1       772-8.83445E-04-4.08201E-05-8.01579E-03
 -1       774-8.83441E-04-4.07844E-05-8.01268E-03
 -1       783-9.17293E-04-3.89612E-05-8.45989E-03
 -1       785-8.57413E-04-4.38163E-05-8.45995E-03
 -1       786-8.87361E-04-4.14120E-05-8.46147E-03
 -1       788-8.87345E-04-4.13656E-05-8.45838E-03
 -1       797-9.20183E-04-3.96209E-05-8.90450E-03
 -1       799-8.60254E-04-4.45651E-05-8.90459E-03
 -1       800-8.90241E-04-4.21056E-05-8.90612E-03
 -1       802-8.90196E-04-4.20803E-05-8.90297E-03
 -1       811-9.22200E-04-4.03972E-05-9.34809E-03
 -1       813-8.62584E-04-4.53860E-05-9.34824E-03
 -1       814-8.92394E-04-4.28876E-05-9.34975E-03
 -1       816-8.92391E-04-4.28956E-05-9.34658E-03
 -1       825-9.23733E-04-4.10193E-05-9.79011E-03
 -1       827-8.64098E-04-4.62293E-05-9.79024E-03
 -1       828-8.93979E-04-4.36252E-05-9.79183E-03
 -1       830-8.93852E-04-4.36234E-05-9.78851E-03
 -1       839-9.24856E-04-4.20372E-05-1.02311E-02
 -1       841-8.65367E-04-4.69658E-05-1.02313E-02
 -1       842-8.95126E-04-4.44971E-05-1.02328E-02
 -1       844-8.95098E-04-4.45059E-05-1.02296E-02
 -1       853-9.19689E-05-2.34026E-05-8.04639E-05
 -1       855-8.10702E-05-2.30341E-05-7.82966E-05
 -1       856-1.74182E-04-2.96362E-05-1.97151E-04
 -1       858-1.51734E-04-2.99207E-05-1.93946E-04
 -1       859-2.46719E-04-3.30290E-05-3.57788E-04
 -1       861-2.25507E-04-3.48975E-05-3.55314E-04
 -1       862-3.17460E-04-3.59681E-05-5.38669E-04
 -1       864-2.90324E-04-3.84847E-05-5.35588E-04
 -1       865-3.82208E-04-3.82745E-05-7.55154E-04
 -1       867-3.51765E-04-4.06462E-05-7.52919E-04
 -1       868-4.42910E-04-3.98859E-05-1.00208E-03
 -1       870-4.07345E-04-4.32171E-05-1.00027E-03
 -1       871-4.98087E-04-4.14686E-05-1.27631E-03
 -1       873-4.60388E-04-4.43665E-05-1.27415E-03
 -1       874-5.48962E-04-4.23783E-05-1.56515E-03
 -1       876-5.08751E-04-4.56597E-05-1.56298E-03
 -1       877-5.96650E-04-4.23087E-05-1.88134E-03
 -1       879-5.51787E-04-4.67447E-05-1.87988E-03
 -1       880-6.38600E-04-4.26963E-05-2.22274E-03
 -1       882-5.92208E-04-4.67443E-05-2.22144E-03
 -1       883-6.77471E-04-4.24142E-05-2.57737E-03
 -1       885-6.28285E-04-4.67029E-05-2.57613E-03
 -1       886-7.12093E-04-4.21037E-05-2.94732E-03
 -1       888-6.61699E-04-4.64516E-05-2.94613E-03
 -1       889-7.44010E-04-4.16296E-05-3.33128E-03
 -1       891-6.91080E-04-4.63939E-05-3.33029E-03
 -1       892-7.72039E-04-4.12679E-05-3.72765E-03
 -1       894-7.18244E-04-4.58074E-05-3.72674E-03
 -1       895-7.97058E-04-4.08347E-05-4.12990E-03
 -1       897-7.42244E-04-4.55131E-05-4.12902E-03
 -1       898-8.19776E-04-4.01811E-05-4.54550E-03
 -1       900-7.62627E-04-4.54859E-05-4.54489E-03
 -1       901-8.38853E-04-3.99273E-05-4.97112E-03
 -1       903-7.81439E-04-4.47682E-05-4.97048E-03
 -1       904-8.55518E-04-3.95134E-05-5.39875E-03
 -1       906-7.97445E-04-4.46508E-05-5.39824E-03
 -1       907-8.70117E-04-3.91582E-05-5.83293E-03
 -1       909-8.10906E-04-4.45024E-05-5.83265E-03
 -1       910-8.82092E-04-3.89469E-05-6.27365E-03
 -1       912-8.22615E-04-4.43712E-05-6.27337E-03
 -1       913-8.92188E-04-3.89212E-05-6.71463E-03
 -1       915-8.32620E-04-4.41514E-05-6.71436E-03
 -1       916-9.00745E-04-3.87995E-05-7.15821E-03
 -1       918-8.40513E-04-4.43447E-05-7.15807E-03
 -1       919-9.07416E-04-3.88469E-05-7.60353E-03
 -1       921-8.47247E-04-4.43620E-05-7.60343E-03
 -1       922-9.12900E-04-3.88996E-05-8.04964E-03
 -1       924-8.52462E-04-4.45934E-05-8.04954E-03
 -1       925-9.17045E-04-3.91844E-05-8.49553E-03
 -1       927-8.56744E-04-4.48820E-05-8.49556E-03
 -1       928-9.20192E-04-3.95059E-05-8.94109E-03
 -1       930-8.60010E-04-4.55295E-05-8.94110E-03
 -1       931-9.22544E-04-4.01773E-05-9.38530E-03
 -1       933-8.62457E-04-4.60412E-05-9.38536E-03
 -1       934-9.24227E-04-4.02554E-05-9.82931E-03
 -1       936-8.64413E-04-4.72366E-05-9.82940E-03
 -1       937-9.25339E-04-4.17587E-05-1.02704E-02
 -1       939-8.66063E-04-4.73807E-05-1.02706E-02
 -1       940 0.00000E+00-8.76868E-07 0.00000E+00
 -1       942 0.00000E+00 8.76868E-07 0.00000E+00
 -1       943 0.00000E+00-5.56517E-08 0.00000E+00
 -1       945 0.00000E+00 5.56517E-08 0.00000E+00
 -1       946 0.00000E+00 9.41524E-07 0.00000E+00
 -1       948 0.00000E+00-9.41524E-07 0.00000E+00
 -1       949 8.24016E-05-1.96628E-06-7.77759E-05
 -1       951 8.20345E-05-5.12449E-06-7.90657E-05
 -1       952 9.25851E-05-2.53260E-06-8.09076E-05
 -1       954 7.18510E-05-4.55816E-06-7.59340E-05
 -1       963 1.62477E-04-1.06154E-05-1.92289E-04
 -1       965 1.63136E-04-1.27728E-05-1.92516E-04
 -1       966 1.69630E-04-1.15168E-05-1.94099E-04
 -1       968 1.55983E-04-1.18715E-05-1.90706E-04
 -1       977 2.36206E-04-1.84626E-05-3.43240E-04
 -1       979 2.36414E-04-2.00791E-05-3.45034E-04
 -1       980 2.47680E-04-1.78629E-05-3.45415E-04
 -1       982 2.24940E-04-2.06789E-05-3.42859E-04
 -1       991 3.04338E-04-2.58259E-05-5.30906E-04
 -1       993 3.05278E-04-2.81317E-05-5.31617E-04
 -1       994 3.16966E-04-2.64222E-05-5.33083E-04
 -1       996 2.92650E-04-2.75355E-05-5.29441E-04
 -1      1005 3.68647E-04-3.42957E-05-7.37941E-04
 -1      1007 3.69189E-04-3.60718E-05-7.38859E-04
 -1      1008 3.82928E-04-3.44644E-05-7.39809E-04
 -1      1010 3.54908E-04-3.59030E-05-7.36992E-04
 -1      1019 4.26659E-04-4.24173E-05-9.83670E-04
 -1      1021 4.27267E-04-4.38923E-05-9.84247E-04
 -1      1022 4.44251E-04-4.27036E-05-9.85138E-04
 -1      1024 4.09674E-04-4.36060E-05-9.82779E-04
 -1      1033 4.79994E-04-5.03664E-05-1.26004E-03
 -1      1035 4.81095E-04-5.21090E-05-1.26036E-03
 -1      1036 4.98682E-04-5.09894E-05-1.26159E-03
 -1      1038 4.62407E-04-5.14860E-05-1.25881E-03
 -1      1047 5.29450E-04-5.87080E-05-1.54698E-03
 -1      1049 5.30021E-04-5.98923E-05-1.54718E-03
 -1      1050 5.49390E-04-5.91503E-05-1.54804E-03
 -1      1052 5.10081E-04-5.94500E-05-1.54612E-03
 -1      1061 5.73371E-04-6.67652E-05-1.86571E-03
 -1      1063 5.74044E-04-6.77154E-05-1.86563E-03
 -1      1064 5.95386E-04-6.73032E-05-1.86645E-03
 -1      1066 5.52029E-04-6.71774E-05-1.86489E-03
 -1      1075 6.13708E-04-7.44139E-05-2.20284E-03
 -1      1077 6.14525E-04-7.60023E-05-2.20265E-03
 -1      1078 6.36884E-04-7.53557E-05-2.20403E-03
 -1      1080 5.91349E-04-7.50605E-05-2.20146E-03
 -1      1089 6.50609E-04-8.27376E-05-2.55128E-03
 -1      1091 6.51297E-04-8.34746E-05-2.55104E-03
 -1      1092 6.74309E-04-8.32912E-05-2.55178E-03
 -1      1094 6.27597E-04-8.29210E-05-2.55054E-03
 -1      1103 6.83334E-04-9.01465E-05-2.91842E-03
 -1      1105 6.83780E-04-9.09082E-05-2.91798E-03
 -1      1106 7.08687E-04-9.08747E-05-2.91885E-03
 -1      1108 6.58427E-04-9.01801E-05-2.91756E-03
 -1      1117 7.12329E-04-9.72441E-05-3.30446E-03
 -1      1119 7.13252E-04-9.82894E-05-3.30385E-03
 -1      1120 7.38610E-04-9.82505E-05-3.30502E-03
 -1      1122 6.86971E-04-9.72830E-05-3.30328E-03
 -1      1131 7.38761E-04-1.04447E-04-3.69778E-03
 -1      1133 7.39076E-04-1.04961E-04-3.69707E-03
 -1      1134 7.65861E-04-1.05268E-04-3.69788E-03
 -1      1136 7.11976E-04-1.04140E-04-3.69697E-03
 -1      1145 7.60868E-04-1.10906E-04-4.10587E-03
 -1      1147 7.61868E-04-1.11654E-04-4.10495E-03
 -1      1148 7.88577E-04-1.12003E-04-4.10605E-03
 -1      1150 7.34159E-04-1.10557E-04-4.10477E-03
 -1      1159 7.80944E-04-1.17406E-04-4.51848E-03
 -1      1161 7.81211E-04-1.17854E-04-4.51744E-03
 -1      1162 8.09262E-04-1.18440E-04-4.51837E-03
 -1      1164 7.52893E-04-1.16820E-04-4.51755E-03
 -1      1173 7.97481E-04-1.23346E-04-4.94273E-03
 -1      1175 7.98212E-04-1.23878E-04-4.94154E-03
 -1      1176 8.26325E-04-1.24547E-04-4.94262E-03
 -1      1178 7.69368E-04-1.22677E-04-4.94166E-03
 -1      1187 8.12080E-04-1.29260E-04-5.37050E-03
 -1      1189 8.12445E-04-1.29612E-04-5.36922E-03
 -1      1190 8.41246E-04-1.30441E-04-5.37020E-03
 -1      1192 7.83279E-04-1.28431E-04-5.36952E-03
 -1      1201 8.23810E-04-1.34586E-04-5.80472E-03
 -1      1203 8.24520E-04-1.34980E-04-5.80324E-03
 -1      1204 8.53410E-04-1.35944E-04-5.80436E-03
 -1      1206 7.94919E-04-1.33621E-04-5.80361E-03
 -1      1215 8.33727E-04-1.39737E-04-6.24366E-03
 -1      1217 8.34045E-04-1.40048E-04-6.24203E-03
 -1      1218 8.63654E-04-1.41178E-04-6.24315E-03
 -1      1220 8.04118E-04-1.38606E-04-6.24254E-03
 -1      1229 8.41392E-04-1.44606E-04-6.68618E-03
 -1      1231 8.41930E-04-1.44839E-04-6.68444E-03
 -1      1232 8.71468E-04-1.46085E-04-6.68556E-03
 -1      1234 8.11854E-04-1.43361E-04-6.68506E-03
 -1      1243 8.47544E-04-1.49402E-04-7.12889E-03
 -1      1245 8.47937E-04-1.49592E-04-7.12709E-03
 -1      1246 8.77653E-04-1.50904E-04-7.12821E-03
 -1      1248 8.17829E-04-1.48089E-04-7.12778E-03
 -1      1257 8.51978E-04-1.53884E-04-7.57373E-03
 -1      1259 8.52450E-04-1.54035E-04-7.57180E-03
 -1      1260 8.82251E-04-1.55472E-04-7.57295E-03
 -1      1262 8.22177E-04-1.52447E-04-7.57258E-03
 -1      1271 8.55048E-04-1.58235E-04-8.01932E-03
 -1      1273 8.55502E-04-1.58336E-04-8.01729E-03
 -1      1274 8.85357E-04-1.59881E-04-8.01845E-03
 -1      1276 8.25193E-04-1.56690E-04-8.01816E-03
 -1      1285 8.56938E-04-1.62534E-04-8.46447E-03
 -1      1287 8.57404E-04-1.62598E-04-8.46233E-03
 -1      1288 8.87227E-04-1.64249E-04-8.46352E-03
 -1      1290 8.27115E-04-1.60882E-04-8.46328E-03
 -1      1299 8.57985E-04-1.66602E-04-8.90924E-03
 -1      1301 8.58301E-04-1.66642E-04-8.90704E-03
 -1      1302 8.88149E-04-1.68349E-04-8.90824E-03
 -1      1304 8.28138E-04-1.64895E-04-8.90804E-03
 -1      1313 8.58097E-04-1.70536E-04-9.35312E-03
 -1      1315 8.58530E-04-1.70562E-04-9.35084E-03
 -1      1316 8.88296E-04-1.72336E-04-9.35207E-03
 -1      1318 8.28331E-04-1.68761E-04-9.35189E-03
 -1      1327 8.57694E-04-1.74513E-04-9.79540E-03
 -1      1329 8.58133E-04-1.74509E-04-9.79300E-03
 -1      1330 8.87766E-04-1.76396E-04-9.79426E-03
 -1      1332 8.28061E-04-1.72625E-04-9.79414E-03
 -1      1341 8.57004E-04-1.78265E-04-1.02362E-02
 -1      1343 8.57295E-04-1.78250E-04-1.02339E-02
 -1      1344 8.86819E-04-1.80097E-04-1.02351E-02
 -1      1346 8.27480E-04-1.76418E-04-1.02350E-02
 -1      1355-4.58119E-04-8.20843E-05-1.06720E-02
 -1      1357-4.57967E-04-8.20848E-05-1.06690E-02
 -1      1358-2.00926E-05-1.16894E-04-1.06728E-02
 -1      1360-1.97967E-05-1.16905E-04-1.06697E-02
 -1      1361 4.17870E-04-1.51392E-04-1.06740E-02
 -1      1363 4.18445E-04-1.51374E-04-1.06710E-02
 -1      1364 8.20313E-05 1.84785E-05-5.74487E-05
 -1      1366 6.54595E-05 1.35091E-05-5.48301E-05
 -1      1367 1.57879E-04 9.80494E-06-1.86492E-04
 -1      1369 1.43097E-04 8.69282E-06-1.84604E-04
 -1      1370 2.37152E-04 1.48681E-06-3.28731E-04
 -1      1372 2.10422E-04-1.64449E-06-3.25415E-04
 -1      1373 3.06529E-04-8.29799E-06-5.22006E-04
 -1      1375 2.77804E-04-9.99019E-06-5.19634E-04
 -1      1376 3.71960E-04-1.80061E-05-7.32538E-04
 -1      1378 3.39650E-04-1.90363E-05-7.30805E-04
 -1      1379 4.33122E-04-2.75443E-05-9.77111E-04
 -1      1381 3.95496E-04-2.86395E-05-9.74709E-04
 -1      1382 4.88374E-04-3.65961E-05-1.25633E-03
 -1      1384 4.47636E-04-3.80461E-05-1.25454E-03
 -1      1385 5.37946E-04-4.67551E-05-1.54858E-03
 -1      1387 4.96545E-04-4.62609E-05-1.54705E-03
 -1      1388 5.85440E-04-5.56081E-05-1.86563E-03
 -1      1390 5.38716E-04-5.58339E-05-1.86339E-03
 -1      1391 6.26429E-04-6.45892E-05-2.20534E-03
 -1      1393 5.78845E-04-6.47549E-05-2.20412E-03
 -1      1394 6.64314E-04-7.40213E-05-2.55698E-03
 -1      1396 6.15097E-04-7.28536E-05-2.55591E-03
 -1      1397 6.98918E-04-8.24055E-05-2.92396E-03
 -1      1399 6.46826E-04-8.15686E-05-2.92208E-03
 -1      1400 7.29776E-04-9.04498E-05-3.31110E-03
 -1      1402 6.75398E-04-8.96415E-05-3.31026E-03
 -1      1403 7.56174E-04-9.85912E-05-3.70715E-03
 -1      1405 7.01942E-04-9.70666E-05-3.70609E-03
 -1      1406 7.80520E-04-1.06119E-04-4.11576E-03
 -1      1408 7.23547E-04-1.04632E-04-4.11474E-03
 -1      1409 8.00650E-04-1.13340E-04-4.53069E-03
 -1      1411 7.43974E-04-1.11403E-04-4.52994E-03
 -1      1412 8.18844E-04-1.20171E-04-4.95548E-03
 -1      1414 7.60238E-04-1.18171E-04-4.95467E-03
 -1      1415 8.33698E-04-1.26702E-04-5.38534E-03
 -1      1417 7.75171E-04-1.24371E-04-5.38473E-03
 -1      1418 8.46631E-04-1.32925E-04-5.82080E-03
 -1      1420 7.87009E-04-1.30255E-04-5.82019E-03
 -1      1421 8.57021E-04-1.38575E-04-6.26081E-03
 -1      1423 7.97069E-04-1.35903E-04-6.26042E-03
 -1      1424 8.65301E-04-1.44067E-04-6.70485E-03
 -1      1426 8.05123E-04-1.41127E-04-6.70442E-03
 -1      1427 8.71672E-04-1.49429E-04-7.14903E-03
 -1      1429 8.11626E-04-1.46102E-04-7.14867E-03
 -1      1430 8.76718E-04-1.54368E-04-7.59452E-03
 -1      1432 8.16311E-04-1.50941E-04-7.59422E-03
 -1      1433 8.80120E-04-1.59102E-04-8.04121E-03
 -1      1435 8.19775E-04-1.55572E-04-8.04095E-03
 -1      1436 8.82273E-04-1.63765E-04-8.48752E-03
 -1      1438 8.22117E-04-1.60002E-04-8.48728E-03
 -1      1439 8.83554E-04-1.68125E-04-8.93314E-03
 -1      1441 8.23433E-04-1.64232E-04-8.93293E-03
 -1      1442 8.83932E-04-1.72362E-04-9.37784E-03
 -1      1444 8.24017E-04-1.68258E-04-9.37767E-03
 -1      1445 8.83605E-04-1.76430E-04-9.82101E-03
 -1      1447 8.24085E-04-1.72328E-04-9.82085E-03
 -1      1448 8.83076E-04-1.80516E-04-1.02623E-02
 -1      1450 8.23587E-04-1.75970E-04-1.02621E-02
 -1      1451 9.35351E-05-2.33660E-05-8.56021E-05
 -1      1453 8.10938E-05-2.46446E-05-8.38720E-05
 -1      1454 1.75835E-04-3.06105E-05-2.06219E-04
 -1      1456 1.52833E-04-3.33437E-05-2.02647E-04
 -1      1457 2.48133E-04-3.57179E-05-3.70846E-04
 -1      1459 2.26783E-04-4.11676E-05-3.67736E-04
 -1      1460 3.20125E-04-4.34098E-05-5.48496E-04
 -1      1462 2.92149E-04-4.62852E-05-5.46025E-04
 -1      1463 3.85823E-04-4.99893E-05-7.54134E-04
 -1      1465 3.54394E-04-5.35680E-05-7.52412E-04
 -1      1466 4.47035E-04-5.75436E-05-9.92956E-04
 -1      1468 4.10259E-04-5.89066E-05-9.90545E-04
 -1      1469 5.02430E-04-6.45975E-05-1.26779E-03
 -1      1471 4.62336E-04-6.56767E-05-1.26601E-03
 -1      1472 5.51896E-04-7.10334E-05-1.55558E-03
 -1      1474 5.11238E-04-7.30846E-05-1.55405E-03
 -1      1475 5.99342E-04-7.84189E-05-1.86839E-03
 -1      1477 5.53229E-04-7.90920E-05-1.86615E-03
 -1      1478 6.40210E-04-8.55416E-05-2.20459E-03
 -1      1480 5.93135E-04-8.58635E-05-2.20339E-03
 -1      1481 6.77767E-04-9.22245E-05-2.55320E-03
 -1      1483 6.29024E-04-9.30952E-05-2.55215E-03
 -1      1484 7.11881E-04-9.89951E-05-2.91724E-03
 -1      1486 6.60264E-04-9.90580E-05-2.91538E-03
 -1      1487 7.42264E-04-1.05513E-04-3.30132E-03
 -1      1489 6.88380E-04-1.05325E-04-3.30050E-03
 -1      1490 7.68131E-04-1.11534E-04-3.69419E-03
 -1      1492 7.14425E-04-1.11476E-04-3.69316E-03
 -1      1493 7.91968E-04-1.17428E-04-4.09956E-03
 -1      1495 7.35490E-04-1.16849E-04-4.09857E-03
 -1      1496 8.11599E-04-1.23081E-04-4.51146E-03
 -1      1498 7.55413E-04-1.22549E-04-4.51074E-03
 -1      1499 8.29290E-04-1.28511E-04-4.93320E-03
 -1      1501 7.71149E-04-1.27523E-04-4.93243E-03
 -1      1502 8.43637E-04-1.33787E-04-5.36023E-03
 -1      1504 7.85577E-04-1.32687E-04-5.35966E-03
 -1      1505 8.56015E-04-1.38564E-04-5.79265E-03
 -1      1507 7.96884E-04-1.37309E-04-5.79207E-03
 -1      1508 8.65977E-04-1.43275E-04-6.22966E-03
 -1      1510 8.06492E-04-1.41729E-04-6.22929E-03
 -1      1511 8.73916E-04-1.47720E-04-6.67092E-03
 -1      1513 8.14144E-04-1.45965E-04-6.67052E-03
 -1      1514 8.79996E-04-1.52099E-04-7.11278E-03
 -1      1516 8.20306E-04-1.50234E-04-7.11244E-03
 -1      1517 8.84720E-04-1.56309E-04-7.55608E-03
 -1      1519 8.24656E-04-1.54184E-04-7.55580E-03
 -1      1520 8.87873E-04-1.60361E-04-8.00061E-03
 -1      1522 8.27879E-04-1.58093E-04-8.00037E-03
 -1      1523 8.89817E-04-1.64386E-04-8.44476E-03
 -1      1525 8.29990E-04-1.62019E-04-8.44454E-03
 -1      1526 8.90888E-04-1.68319E-04-8.88849E-03
 -1      1528 8.31050E-04-1.65777E-04-8.88829E-03
 -1      1529 8.91110E-04-1.72144E-04-9.33147E-03
 -1      1531 8.31464E-04-1.69449E-04-9.33131E-03
 -1      1532 8.90690E-04-1.76028E-04-9.77312E-03
 -1      1534 8.31376E-04-1.73175E-04-9.77297E-03
 -1      1535 8.90103E-04-1.79529E-04-1.02135E-02
 -1      1537 8.30668E-04-1.77048E-04-1.02134E-02
 -1      1538-2.65149E-04-4.61698E-05-1.53589E-03
 -1      1540-2.65118E-04-4.50599E-05-1.53510E-03
 -1      1541 4.14032E-04-1.23567E-04-6.68227E-03
 -1      1543 4.14396E-04-1.23598E-04-6.68031E-03
 -1      1544-4.50685E-04-7.57599E-05-8.46109E-03
 -1      1546-4.50550E-04-7.57318E-05-8.45829E-03
 -1      1547-4.55845E-04-7.99819E-05-9.79211E-03
 -1      1549-4.55741E-04-7.99939E-05-9.78913E-03
 -1      1550 3.03727E-04-7.21619E-05-2.18808E-03
 -1      1552 3.04273E-04-7.23467E-05-2.18770E-03
 -1      1553-3.61012E-04-6.18950E-05-3.29496E-03
 -1      1555-3.60599E-04-6.18414E-05-3.29305E-03
 -1      1556-4.08415E-04-6.64919E-05-4.93615E-03
 -1      1558-4.08444E-04-6.61746E-05-4.93405E-03
 -1      1559-1.16152E-04-2.04811E-05-3.24640E-04
 -1      1561-1.15164E-04-1.98231E-05-3.24122E-04
 -1      1562-2.11988E-04-3.85098E-05-9.78721E-04
 -1      1564-2.11593E-04-3.78550E-05-9.77871E-04
 -1      1565 2.37769E-04-5.37141E-05-1.24325E-03
 -1      1567 2.38143E-04-5.45004E-05-1.24330E-03
 -1      1568 4.19770E-04-1.32753E-04-8.01737E-03
 -1      1570 4.20018E-04-1.32782E-04-8.01506E-03
 -1      1571 4.20179E-04-1.42151E-04-9.35155E-03
 -1      1573 4.20389E-04-1.42140E-04-9.34905E-03
 -1      1574-4.36839E-04-7.12557E-05-6.68017E-03
 -1      1576-4.36721E-04-7.12218E-05-6.67769E-03
 -1      1577-3.06725E-04-5.30016E-05-2.19049E-03
 -1      1579-3.06414E-04-5.20357E-05-2.18963E-03
 -1      1580 3.37876E-04-8.39695E-05-2.91473E-03
 -1      1582 3.38546E-04-8.43041E-05-2.91411E-03
 -1      1583 3.52084E-04-9.00828E-05-3.29403E-03
 -1      1585 3.52602E-04-9.04666E-05-3.29331E-03
 -1      1586 3.85460E-04-1.04116E-04-4.51524E-03
 -1      1588 3.85987E-04-1.04376E-04-4.51400E-03
 -1      1589 4.00519E-04-1.12326E-04-5.36597E-03
 -1      1591 4.00661E-04-1.12478E-04-5.36429E-03
 -1      1592-3.98889E-04-6.47051E-05-4.51251E-03
 -1      1594-3.98504E-04-6.45655E-05-4.51043E-03
 -1      1595-4.24658E-04-6.76630E-05-5.79996E-03
 -1      1597-4.24391E-04-6.76309E-05-5.79757E-03
 -1      1598 7.68401E-05-1.66056E-05-1.83029E-04
 -1      1600 7.73459E-05-1.73891E-05-1.83968E-04
 -1      1601 1.14878E-04-2.60960E-05-3.27157E-04
 -1      1603 1.16063E-04-2.71789E-05-3.27215E-04
 -1      1604 1.80685E-04-4.04234E-05-7.32270E-04
 -1      1606 1.81181E-04-4.14025E-05-7.32654E-04
 -1      1607-3.23331E-07-7.80469E-06-6.39160E-05
 -1      1609 3.08883E-07-7.85035E-06-6.40527E-05
 -1      1610 4.18877E-04-1.47393E-04-1.02348E-02
 -1      1612 4.19064E-04-1.47376E-04-1.02320E-02
 -1      1613 2.61891E-04-5.91978E-05-1.54058E-03
 -1      1615 2.62290E-04-5.92051E-05-1.54049E-03
 -1      1616-4.44976E-04-7.27774E-05-7.56949E-03
 -1      1618-4.44728E-04-7.27625E-05-7.56700E-03
 -1      1619 4.16942E-04-1.27012E-04-7.12590E-03
 -1      1621 4.17155E-04-1.27014E-04-7.12383E-03
 -1      1622-4.56996E-04-8.06470E-05-1.02331E-02
 -1      1624-4.56895E-04-8.06817E-05-1.02300E-02
 -1      1625-3.44609E-04-5.89739E-05-2.91379E-03
 -1      1627-3.44366E-04-5.84642E-05-2.91225E-03
 -1      1628-3.66376E-05-7.27163E-06-5.67069E-05
 -1      1630-3.51150E-05-6.22434E-06-5.65485E-05
 -1      1631 4.05901E-04-1.15683E-04-5.80272E-03
 -1      1633 4.06079E-04-1.15765E-04-5.80093E-03
 -1      1634-3.88692E-04-6.35200E-05-4.09700E-03
 -1      1636-3.88670E-04-6.33100E-05-4.09499E-03
 -1      1637 3.64865E-04-9.51850E-05-3.69346E-03
 -1      1639 3.65448E-04-9.55631E-05-3.69259E-03
 -1      1640-4.54501E-04-7.88769E-05-9.34970E-03
 -1      1642-4.54292E-04-7.88832E-05-9.34671E-03
 -1      1643 4.20456E-04-1.36330E-04-8.46248E-03
 -1      1645 4.20700E-04-1.36333E-04-8.46010E-03
 -1      1646 3.53406E-05-6.73888E-06-5.67183E-05
 -1      1648 3.69087E-05-7.91071E-06-5.66490E-05
 -1      1649-1.82554E-04-3.42026E-05-7.27806E-04
 -1      1651-1.81975E-04-3.35283E-05-7.27067E-04
 -1      1652-2.84032E-06-5.09573E-05-1.23420E-03
 -1      1654-2.41174E-06-5.16241E-05-1.23351E-03
 -1      1655-2.39771E-04-4.29824E-05-1.23978E-03
 -1      1657-2.39238E-04-4.24550E-05-1.23883E-03
 -1      1658-1.80109E-05-1.13520E-04-9.79270E-03
 -1      1660-1.80020E-05-1.13494E-04-9.79001E-03
 -1      1661-1.13922E-05-9.89101E-05-6.68001E-03
 -1      1663-1.11651E-05-9.90888E-05-6.67762E-03
 -1      1664-1.42217E-05-1.05084E-04-8.01566E-03
 -1      1666-1.38060E-05-1.05114E-04-8.01321E-03
 -1      1667-2.86286E-04-4.84563E-05-1.85236E-03
 -1      1669-2.85759E-04-4.85509E-05-1.85112E-03
 -1      1670 2.08851E-04-4.79457E-05-9.67719E-04
 -1      1672 2.09598E-04-4.80940E-05-9.67890E-04
 -1      1673-7.72264E-05-1.45433E-05-1.83752E-04
 -1      1675-7.72756E-05-1.35455E-05-1.82878E-04
 -1      1676-4.35060E-06-7.87167E-05-3.29535E-03
 -1      1678-3.92399E-06-7.88111E-05-3.29416E-03
 -1      1679-4.41116E-04-7.17514E-05-7.12473E-03
 -1      1681-4.41109E-04-7.15931E-05-7.12222E-03
 -1      1682 4.18634E-04-1.29596E-04-7.57151E-03
 -1      1684 4.18796E-04-1.29629E-04-7.56920E-03
 -1      1685-3.26534E-04-5.61554E-05-2.54227E-03
 -1      1687-3.26090E-04-5.62796E-05-2.54071E-03
 -1      1688-4.48038E-04-7.48012E-05-8.01499E-03
 -1      1690-4.47875E-04-7.47798E-05-8.01222E-03
 -1      1691-4.52847E-04-7.70105E-05-8.90588E-03
 -1      1693-4.52638E-04-7.70376E-05-8.90305E-03
 -1      1694-6.99562E-06-8.98486E-05-4.93392E-03
 -1      1696-6.84532E-06-8.98937E-05-4.93199E-03
 -1      1697 4.20455E-04-1.38922E-04-8.90769E-03
 -1      1699 4.20699E-04-1.38917E-04-8.90506E-03
 -1      1700-6.71304E-06-8.67508E-05-4.51337E-03
 -1      1702-6.49497E-06-8.67509E-05-4.51163E-03
 -1      1703 1.25869E-07-4.04445E-05-7.21327E-04
 -1      1705 6.00072E-07-4.08136E-05-7.20863E-04
 -1      1706-3.75481E-04-6.33928E-05-3.69140E-03
 -1      1708-3.75586E-04-6.31041E-05-3.68936E-03
 -1      1709-4.31049E-04-6.99222E-05-6.23942E-03
 -1      1711-4.30824E-04-6.98240E-05-6.23705E-03
 -1      1712 2.83251E-04-6.47184E-05-1.85571E-03
 -1      1714 2.83957E-04-6.58181E-05-1.85541E-03
 -1      1715-4.17577E-04-6.65893E-05-5.36572E-03
 -1      1717-4.17548E-04-6.64635E-05-5.36354E-03
 -1      1718 3.93324E-04-1.09052E-04-4.93597E-03
 -1      1720 3.93806E-04-1.09236E-04-4.93459E-03
 -1      1721-9.60899E-06-9.32299E-05-5.80031E-03
 -1      1723-9.06513E-06-9.34651E-05-5.79811E-03
 -1      1724 3.21839E-04-7.79731E-05-2.54214E-03
 -1      1726 3.22398E-04-7.87943E-05-2.54154E-03
 -1      1727 4.19631E-04-1.45174E-04-9.79396E-03
 -1      1729 4.19830E-04-1.45162E-04-9.79119E-03
 -1      1730 3.76646E-04-1.00107E-04-4.09764E-03
 -1      1732 3.77015E-04-1.00399E-04-4.09663E-03
 -1      1733-1.90793E-05-1.14594E-04-1.02336E-02
 -1      1735-1.89080E-05-1.14600E-04-1.02308E-02
 -1      1736-4.08727E-07-1.92363E-05-1.65962E-04
 -1      1738 1.80947E-07-1.91181E-05-1.65757E-04
 -1      1739 4.10190E-04-1.20141E-04-6.23962E-03
 -1      1741 4.10489E-04-1.20151E-04-6.23787E-03
 -1      1742-1.50438E-04-2.75606E-05-5.09509E-04
 -1      1744-1.49676E-04-2.63304E-05-5.08802E-04
 -1      1745 1.49600E-04-3.43443E-05-5.07483E-04
 -1      1747 1.50316E-04-3.48222E-05-5.07491E-04
 -1      1748-1.58201E-06-5.93913E-05-1.85334E-03
 -1      1750-1.11148E-06-5.94243E-05-1.85258E-03
 -1      1751-9.70717E-07-6.46032E-05-2.18428E-03
 -1      1753-6.92202E-07-6.43812E-05-2.18340E-03
 -1      1754-1.50153E-05-1.07455E-04-8.46136E-03
 -1      1756-1.49961E-05-1.07418E-04-8.45876E-03
 -1      1757-1.72027E-05-1.11380E-04-9.35030E-03
 -1      1759-1.68338E-05-1.11401E-04-9.34760E-03
 -1      1760-1.02352E-05-9.68117E-05-6.23853E-03
 -1      1762-1.01215E-05-9.66090E-05-6.23644E-03
 -1      1763-2.18361E-06-6.96207E-05-2.54341E-03
 -1      1765-1.58137E-06-6.93862E-05-2.54259E-03
 -1      1766-1.21880E-05-1.00286E-04-7.12512E-03
 -1      1768-1.21399E-05-1.00249E-04-7.12267E-03
 -1      1769-1.61630E-06-4.59853E-05-9.67989E-04
 -1      1771-1.36270E-06-4.57082E-05-9.67660E-04
 -1      1772-5.31614E-06-8.34990E-05-3.68664E-03
 -1      1774-5.09819E-06-8.33252E-05-3.68534E-03
 -1      1775-6.26567E-06-8.45859E-05-4.09594E-03
 -1      1777-6.30934E-06-8.45812E-05-4.09420E-03
 -1      1778-8.40962E-06-9.07190E-05-5.36560E-03
 -1      1780-8.41319E-06-9.05145E-05-5.36369E-03
 -1      1781-1.33922E-05-1.02152E-04-7.56995E-03
 -1      1783-1.31624E-05-1.02163E-04-7.56745E-03
 -1      1784-2.49223E-07-3.20189E-05-5.12417E-04
 -1      1786 7.07686E-07-3.22988E-05-5.12188E-04
 -1      1787 7.92828E-07-2.54067E-05-3.21110E-04
 -1      1789 8.25244E-07-2.54283E-05-3.20759E-04
 -1      1790-2.98895E-06-7.50477E-05-2.90742E-03
 -1      1792-2.77991E-06-7.47895E-05-2.90639E-03
 -1      1793-2.12312E-06-5.47589E-05-1.53475E-03
 -1      1795-1.88619E-06-5.43910E-05-1.53416E-03
 -1      1796-1.61605E-05-1.08801E-04-8.90634E-03
 -1      1798-1.60236E-05-1.08801E-04-8.90376E-03
 -3
    1PSTEP                         7           2           1          
  100CL  102 100.0000000         682                     0    2           1
 -4  STRESS      6    1
 -5  SXX         1    4    1    1
 -5  SYY         1    4    2    2
 -5  SZZ         1    4    3    3
 -5  SXY         1    4    1    2
 -5  SYZ         1    4    2    3
 -5  SZX         1    4    3    1
 -1       280-1.90363E+08-5.95384E+07-8.02408E+06 1.48859E+07-1.08114E+07-1.07885E+07
 -1       282-1.54079E+08-4.39917E+07 7.51607E+06 1.20014E+07-8.32791E+06-1.37780E+07
 -1       283-1.12367E+06-1.23615E+06-6.21716E+05 1.71582E+05-1.20305E+05-7.83756E+04
 -1       285 8.05801E+05 9.78427E+05 6.21621E+05 1.13891E+05-9.86373E+04-8.90694E+04
 -1       286-2.49384E+05-1.03749E+06-3.65943E+05 4.42209E+04-2.31705E+04-3.95573E+04
 -1       288-8.71300E+04 7.79144E+05 2.27703E+05 6.72550E+01-3.35736E+04-3.78513E+04
 -1       289 2.68993E+05 1.57976E+05 1.63657E+06-7.62762E+03 2.75887E+04-7.31295E+05
 -1       291 3.58395E+05 1.41312E+05 1.49161E+06 1.32482E+03 2.36073E+04-6.99941E+05
 -1       300-1.87485E+08-4.15930E+07-4.98361E+06 5.38743E+06-1.58180E+06-8.36427E+06
 -1       302-1.71744E+08-3.68038E+07 1.16987E+06 4.91532E+06-3.33275E+06-6.80697E+06
 -1       303-1.27190E+08 4.21891E+06-1.35503E+07-3.55326E+04 1.08615E+06-3.63335E+07
 -1       305-1.26575E+08 4.24079E+06-1.40954E+07 2.50878E+04 3.19473E+05-3.53348E+07
 -1       314-7.00440E+05-1.64241E+06-6.07546E+05-8.94614E+04 1.57125E+05-1.56169E+03
 -1       316 1.83047E+05 1.51694E+06 6.05201E+05-4.60972E+05 1.33070E+05 5.28710E+03
 -1       317-1.81359E+08-2.91298E+07 2.63930E+06-1.05643E+07-3.36052E+06-1.12583E+07
 -1       319-1.92558E+08-3.59264E+07-2.74828E+06-6.71293E+06-1.95599E+06-1.25222E+07
 -1       320 1.27092E+08-3.63855E+06 1.47774E+07 1.23150E+04 4.11604E+04-3.54962E+07
 -1       322 1.27742E+08-3.71142E+06 1.38874E+07-1.27752E+05-5.86174E+05-3.64459E+07
 -1       323 1.98725E+08 4.65095E+07 9.87133E+06 6.30412E+06 2.55586E+06-7.72923E+06
 -1       325 1.58988E+08 3.13487E+07-6.61003E+06 3.56727E+06 2.70454E+06-7.86226E+06
 -1       334 1.36880E+05 2.53828E+05-5.90318E+05 2.93171E+04-2.97771E+05-5.83506E+05
 -1       336-7.01547E+05-4.00624E+05-1.93341E+06 2.84037E+04-2.99652E+05-7.87287E+05
 -1       337 5.98598E+05 1.10976E+06 4.48360E+05-2.03187E+04-5.12529E+04 7.87759E+03
 -1       339-2.56729E+05-9.39441E+05-4.22820E+05 1.14852E+05-5.37207E+04-8.29305E+03
 -1       348 1.87658E+08 5.85968E+07 7.73757E+06 1.44179E+07 1.12031E+07-1.10008E+07
 -1       350 1.52778E+08 4.36448E+07-7.22093E+06 1.14272E+07 8.58308E+06-1.36579E+07
 -1       351 9.05670E+05 1.07346E+06 4.57432E+05-1.60897E+04 1.15803E+05-6.82996E+04
 -1       353-4.04683E+05-6.68012E+05-4.57744E+05 4.67664E+05 1.01390E+05-1.01088E+05
 -1       354-5.54353E+05-9.78134E+05-5.47739E+05-2.27986E+05-1.13196E+05-8.96196E+04
 -1       356 8.77830E+05 1.23980E+06 5.46925E+05-6.37168E+04-1.23511E+05-5.80918E+04
 -1       357 1.83183E+08 3.01508E+07-1.96857E+06-1.03383E+07 3.40161E+06-1.13741E+07
 -1       359 1.92289E+08 3.47688E+07 2.15905E+06-7.34223E+06 1.57185E+06-1.30216E+07
 -1       360-1.81672E+08-2.34438E+07-4.21621E+06 7.85597E+06 1.84631E+05-1.28369E+05
 -1       362-1.58748E+08-1.75286E+07 4.43182E+06 5.85523E+06-1.78985E+05-7.95167E+05
 -1       363-1.63480E+08 3.82556E+05 1.59160E+05 3.41985E+06 3.70187E+05 8.45049E+05
 -1       365-1.61825E+08-2.26052E+06-1.34513E+05 3.41709E+06-4.64295E+05 5.84822E+05
 -1       366-1.57880E+08-3.23951E+05-1.96337E+06 3.43076E+06 3.31943E+05-3.76748E+05
 -1       368-1.46876E+08 1.81191E+06 1.97831E+06 5.53758E+06-7.33282E+04-3.31722E+05
 -1       369-1.44300E+08-2.12837E+05-1.08847E+06 4.18595E+06-1.93373E+05 7.03468E+05
 -1       371-1.38897E+08 1.71713E+06 1.11172E+06 5.44888E+06-4.01165E+05 4.89606E+05
 -1       372-1.35615E+08-2.21937E+06-2.41697E+06 4.95981E+06-2.35442E+05 2.11739E+05
 -1       374-1.25263E+08 3.39588E+06 2.37186E+06 4.56041E+06-6.22810E+04 1.32860E+05
 -1       375-1.24450E+08-2.65505E+06-2.28573E+06 4.57660E+06-1.96443E+05 5.03519E+05
 -1       377-1.15276E+08 3.52526E+06 2.31951E+06 3.99270E+06-3.77878E+05 3.14135E+05
 -1       378-1.14365E+08-1.77135E+06-1.60660E+06 4.37582E+06 1.87663E+05 2.16225E+05
 -1       380-1.07551E+08 2.28870E+06 1.65449E+06 4.10002E+06-3.06794E+05 1.45363E+05
 -1       381-1.04093E+08-1.13958E+06-1.25358E+06 3.93744E+06-1.64310E+05 4.28379E+05
 -1       383-9.90818E+07 2.11594E+06 1.22633E+06 4.30058E+06-1.45826E+05 3.09589E+05
 -1       384-9.70146E+07-2.59536E+06-2.36657E+06 4.26914E+06-3.63509E+05 3.95600E+05
 -1       386-8.75048E+07 3.58479E+06 2.33963E+06 3.67438E+06-1.52658E+05 2.95560E+05
 -1       387-8.67425E+07-1.66318E+06-1.54905E+06 3.83387E+06 1.88850E+03 2.51239E+05
 -1       389-8.04890E+07 2.52535E+06 1.58366E+06 3.48426E+06-1.92582E+05 9.73944E+04
 -1       390-7.74790E+07-1.28817E+06-1.08143E+06 3.61815E+06 1.52083E+04 4.05937E+05
 -1       392-7.33841E+07 1.89310E+06 1.10130E+06 3.38790E+06-3.18607E+05 3.14132E+05
 -1       393-7.03163E+07-1.65134E+06-1.30683E+06 3.32533E+06-4.14750E+03 2.30938E+05
 -1       395-6.52691E+07 2.04550E+06 1.31618E+06 3.25683E+06-2.14528E+05 1.52046E+05
 -1       396-6.30986E+07-1.57954E+06-1.26473E+06 3.23031E+06-1.13585E+05 3.35780E+05
 -1       398-5.83606E+07 2.11345E+06 1.26465E+06 2.89753E+06-2.16197E+05 2.45810E+05
 -1       399-5.57094E+07-1.01309E+06-8.70583E+05 2.98985E+06 1.07869E+04 1.79838E+05
 -1       401-5.24071E+07 1.52683E+06 8.82257E+05 2.93184E+06-1.16625E+05 1.08729E+05
 -1       402-4.88542E+07-7.02258E+05-6.59111E+05 2.61085E+06-6.57059E+04 2.65560E+05
 -1       404-4.65232E+07 1.35802E+06 6.58731E+05 2.86505E+06-1.26530E+05 1.86023E+05
 -1       405-4.37786E+07-1.44634E+06-1.26355E+06 2.79594E+06-1.64553E+05 2.44296E+05
 -1       407-3.90120E+07 2.18405E+06 1.25588E+06 2.38442E+06-1.50140E+05 1.66635E+05
 -1       408-3.69281E+07-8.18240E+05-6.56611E+05 2.49786E+06-9.70527E+03 1.00773E+05
 -1       410-3.46561E+07 1.32538E+06 6.68355E+05 2.41295E+06-7.06592E+04 4.63391E+04
 -1       411-3.10304E+07-5.03636E+05-3.96652E+05 2.12087E+06-9.89641E+04 2.15959E+05
 -1       413-3.00006E+07 1.07052E+06 3.85214E+05 2.21155E+06-6.40081E+04 1.40512E+05
 -1       414-2.70444E+07-1.00070E+06-7.89073E+05 2.07131E+06-9.75461E+04 1.35762E+05
 -1       416-2.43003E+07 1.51589E+06 7.89398E+05 1.92732E+06-9.55582E+04 9.17536E+04
 -1       417-2.22150E+07-9.18288E+05-6.14662E+05 1.90977E+06-3.57035E+04 1.02464E+05
 -1       419-2.03378E+07 1.33599E+06 6.25290E+05 1.70538E+06-1.18029E+05 3.36305E+04
 -1       420-1.76661E+07-6.21366E+05-2.99700E+05 1.65252E+06-3.78299E+04 9.98903E+04
 -1       422-1.71687E+07 8.74472E+05 2.98369E+05 1.60489E+06-7.75330E+04 7.82842E+04
 -1       423-1.48391E+07-8.87371E+05-5.66524E+05 1.55441E+06-1.02322E+05 1.14885E+05
 -1       425-1.31850E+07 1.21553E+06 5.61011E+05 1.28741E+06-6.46735E+04 6.90834E+04
 -1       426-1.09716E+07-1.40509E+06-6.62971E+05 1.06699E+06-6.17805E+04 5.56888E+04
 -1       428-9.29810E+06 1.34020E+06 6.62935E+05 1.40766E+06-1.59797E+04 2.68393E+04
 -1       429-6.19764E+06 1.30685E+06 6.86340E+05 1.41838E+06-1.49440E+05-2.80984E+04
 -1       431-7.88700E+06-1.61343E+06-6.96113E+05 6.81279E+05-2.24445E+05-6.25050E+04
 -1       432-5.92262E+06-2.80176E+05-2.20173E+05 4.03120E+05-4.27786E+03 3.69907E+04
 -1       434-4.88149E+06 1.65741E+05 2.25212E+05 1.34297E+06-8.46017E+03 9.76869E+04
 -1       435-3.77071E+06-1.27595E+06-4.74300E+05 9.25552E+05-1.72519E+05 1.36599E+04
 -1       437-3.09019E+06 1.19032E+06 4.70080E+05 5.09113E+05-1.32397E+05-1.53174E+04
 -1       438-2.05763E+06-5.29257E+05-1.28713E+05 5.40396E+05-3.63546E+04 1.78571E+04
 -1       440-2.25375E+06 5.14382E+05 1.25805E+05 5.53930E+05 7.64839E+03-1.73497E+03
 -1       441-1.75832E+06-1.78868E+06-7.13639E+05 4.24669E+05-2.02704E+05 4.61749E+04
 -1       443-5.84484E+05 1.78436E+06 7.10458E+05 4.70172E+05-1.68482E+05 4.45046E+04
 -1       444-1.02199E+06-1.60804E+06-6.61261E+05 3.40018E+05-7.85543E+04 1.44291E+04
 -1       446 2.72872E+05 1.50048E+06 6.59873E+05 1.16165E+05-5.20198E+04 5.64412E+03
 -1       447-1.75415E+08-1.34570E+07 4.97136E+05-2.69716E+06-1.60184E+05-4.60732E+05
 -1       449-1.74487E+08-1.27873E+07 9.76958E+05 2.19813E+05 8.20021E+05-1.14076E+06
 -1       450-1.73848E+08-3.25336E+06-6.43141E+06 1.38416E+05 1.28792E+06-4.12903E+07
 -1       452-1.74147E+08-3.86437E+06-8.17548E+06 4.95477E+04 3.48358E+04-4.00977E+07
 -1       461-1.63526E+08-1.76252E+06-8.92885E+05 4.91017E+05-5.00904E+05 6.53622E+05
 -1       463-1.58760E+08 1.81142E+05 1.11881E+06 3.15900E+05-1.91385E+05 8.11110E+05
 -1       464-1.23911E+08-2.98073E+05-2.18751E+06 8.46358E+04 2.38863E+05-4.04515E+07
 -1       466-1.23711E+08-1.15822E+05-1.78084E+06-1.11803E+05-5.88162E+05-4.01484E+07
 -1       475-1.51603E+08-1.22132E+06 4.16892E+05 1.35765E+06-1.03419E+05 3.24989E+05
 -1       477-1.47730E+08 1.97961E+06 2.53875E+06-6.85083E+05 2.22668E+05 9.63886E+04
 -1       478-1.50742E+08-6.16192E+06 4.99941E+06 9.93108E+04 7.68029E+05-3.63784E+07
 -1       480-1.51562E+08-6.70666E+06 4.00018E+06-1.14931E+04-1.70216E+05-3.57060E+07
 -1       489-1.40720E+08-1.74797E+06-1.34401E+06 1.10046E+05-1.30818E+05 3.27657E+05
 -1       491-1.36720E+08 1.45142E+06 8.14539E+05 1.04098E+05-8.39600E+04 3.18556E+05
 -1       492-1.14433E+08 7.01192E+05 6.55454E+06 4.59675E+04 2.25048E+05-3.85555E+07
 -1       494-1.14285E+08 8.69291E+05 6.96694E+06 1.99622E+04-2.20480E+05-3.80055E+07
 -1       503-1.29116E+08-1.22179E+06-1.59080E+05 1.57058E+05 2.87980E+05 2.37348E+05
 -1       505-1.25331E+08 1.48716E+06 1.78777E+06-1.15344E+05 6.65261E+04 2.89140E+05
 -1       506-1.09078E+08-2.23840E+06-3.52328E+06 4.31041E+04 6.44052E+05-3.92791E+07
 -1       508-1.09224E+08-2.34547E+06-3.73570E+06-3.97290E+04 2.39456E+05-3.87820E+07
 -1       517-1.18787E+08-5.98581E+05-4.96753E+04-1.50703E+05 3.63989E+04 2.76537E+05
 -1       519-1.16316E+08 6.85981E+05 1.07713E+06 1.41461E+05 2.85590E+05 2.23686E+05
 -1       520-9.04632E+07-9.22835E+05-4.97031E+06 1.70836E+04 6.12918E+05-3.38962E+07
 -1       522-9.10069E+07-1.36872E+06-5.91494E+06-2.37918E+02 1.39341E+04-3.36026E+07
 -1       531-1.09634E+08-7.38041E+05 1.60739E+05 2.62547E+04-6.07744E+04 3.43095E+05
 -1       533-1.07880E+08 9.97282E+05 1.20847E+06 8.73754E+04 3.07349E+05 1.61843E+05
 -1       534-1.08285E+08-2.80073E+06 5.99072E+06 1.44397E+05 8.23911E+05-3.11109E+07
 -1       536-1.08653E+08-3.19943E+06 5.02680E+06-7.70302E+04 2.04177E+05-3.07174E+07
 -1       545-1.00961E+08-1.14396E+06-8.32962E+05 1.03580E+05 8.75088E+04 3.98628E+05
 -1       547-9.76862E+07 1.08174E+06 8.16009E+05-2.53773E+05-1.12006E+05 4.37844E+05
 -1       548-8.26997E+07 3.82998E+05 3.62772E+06-1.53181E+04 1.44383E+05-3.16657E+07
 -1       550-8.33984E+07-2.03320E+05 2.37038E+06 1.39831E+04-9.23707E+03-3.15647E+07
 -1       559-9.14851E+07-9.55398E+05-3.96002E+05 3.21310E+04 2.17068E+05 2.37553E+05
 -1       561-8.86072E+07 9.81850E+05 1.04765E+06-8.70677E+04 7.07381E+04 2.56854E+05
 -1       562-6.80795E+07-3.73825E+05-5.27642E+06-1.22311E+03 4.83195E+05-2.90223E+07
 -1       564-6.87172E+07-1.03505E+06-6.84503E+06 9.61132E+03 1.01238E+05-2.87791E+07
 -1       573-8.22750E+07-7.24811E+05 1.37926E+05-7.38174E+04 2.88639E+04 2.30642E+05
 -1       575-8.06477E+07 8.83658E+05 1.10878E+06 3.34690E+04 2.38179E+05 1.79293E+05
 -1       576-6.91711E+07-1.34051E+06-2.72956E+06 1.40732E+05 4.71410E+05-2.47355E+07
 -1       578-7.01647E+07-2.27997E+06-4.87054E+06-9.42859E+04 1.42792E+05-2.43059E+07
 -1       587-7.42585E+07-5.13608E+05 4.42090E+05-3.95560E+04-2.34663E+04 3.24637E+05
 -1       589-7.25702E+07 7.88218E+05 1.33944E+06 5.94109E+04 1.78716E+05 2.67066E+05
 -1       590-6.20452E+07-2.24562E+06 3.69124E+05-1.49802E+04 5.12750E+05-2.38167E+07
 -1       592-6.27449E+07-2.87341E+06-1.02610E+06 4.56084E+04-3.16547E+04-2.35076E+07
 -1       601-6.69961E+07-5.47110E+05 2.03692E+05 4.52692E+04-3.81877E+03 2.74493E+05
 -1       603-6.51610E+07 7.78449E+05 1.15205E+06-1.43741E+05 9.25526E+04 2.36264E+05
 -1       604-5.58065E+07-1.64587E+06-1.24552E+05 8.51845E+04 2.34612E+05-2.17488E+07
 -1       606-5.62866E+07-2.21520E+06-1.54418E+06-6.33850E+04-5.61411E+04-2.14282E+07
 -1       615-5.98851E+07-4.06349E+05 8.28910E+04-1.07779E+05 3.05630E+04 2.01648E+05
 -1       617-5.86914E+07 4.85038E+05 7.08418E+05 8.01743E+04 6.59115E+04 1.84686E+05
 -1       618-4.84718E+07-8.61454E+05 4.06249E+06 1.28847E+04 2.73908E+05-2.22141E+07
 -1       620-4.91446E+07-1.40324E+06 2.92775E+06 2.77977E+04-1.00432E+05-2.20345E+07
 -1       629-5.32674E+07-4.79554E+05 8.08530E+03-1.47970E+04 3.85670E+04 2.17423E+05
 -1       631-5.24157E+07 5.24006E+05 5.65121E+05 1.67771E+04 1.26324E+05 1.59969E+05
 -1       632-5.24071E+07-1.08721E+06 3.46388E+06 2.46204E+04 4.65144E+05-2.14500E+07
 -1       634-5.26434E+07-1.41452E+06 2.60809E+06-4.33524E+04 2.03082E+05-2.16507E+07
 -1       643-4.73137E+07-7.02000E+05-3.22653E+05 3.42289E+03 2.74410E+04 2.69348E+05
 -1       645-4.54910E+07 7.77408E+05 6.67934E+05-2.13300E+05 1.95603E+04 2.49234E+05
 -1       646-3.88912E+07-2.98655E+05 3.04730E+06 3.93956E+04 2.59399E+05-2.12981E+07
 -1       648-3.92898E+07-6.73398E+05 2.19590E+06-2.35052E+04 3.75789E+04-2.13617E+07
 -1       657-4.08863E+07-5.53752E+05-2.63449E+05-8.23621E+04 1.13737E+05 1.23955E+05
 -1       659-3.97083E+07 4.98557E+05 4.05563E+05-2.10444E+04 8.11310E+04 1.11481E+05
 -1       660-2.95291E+07 1.00457E+05 5.31505E+05 8.68033E+03 2.62666E+05-1.99916E+07
 -1       662-3.00567E+07-4.07299E+05-6.34389E+05 1.24074E+04 8.29733E+04-1.98539E+07
 -1       671-3.50457E+07-4.50454E+05-9.61878E+04-7.08834E+04 8.84705E+04 1.38479E+05
 -1       673-3.45425E+07 4.19434E+05 3.16293E+05-1.26845E+03 1.39196E+05 8.01225E+04
 -1       674-3.44052E+07-2.24359E+05 1.79284E+06 3.47218E+04 4.84857E+05-1.82782E+07
 -1       676-3.48977E+07-7.50420E+05 5.30966E+05-2.88860E+04 3.94589E+05-1.83548E+07
 -1       685-3.00423E+07-5.12419E+05-2.77802E+05-1.01958E+05 6.61253E+04 1.58780E+05
 -1       687-2.91145E+07 4.93186E+05 3.01781E+05-1.43216E+05-2.27093E+04 1.80896E+05
 -1       688-2.47982E+07 2.21775E+05 2.28240E+06 3.56747E+04 1.52901E+05-1.68372E+07
 -1       690-2.52736E+07-2.51900E+05 1.17832E+06-2.38522E+04 5.97002E+04-1.68599E+07
 -1       699-2.53113E+07-5.95037E+05-1.19719E+05-6.66985E+03 9.81519E+04 1.25375E+05
 -1       701-2.41548E+07 6.64431E+05 6.05292E+05-1.70572E+05 1.12853E+05 9.44730E+04
 -1       702-1.85371E+07-3.35586E+05 2.47717E+05 1.05726E+04 3.28183E+05-1.52657E+07
 -1       704-1.89026E+07-7.24180E+05-6.82719E+05 4.35254E+03 1.78003E+05-1.50845E+07
 -1       713-2.06084E+07-3.20383E+05-3.28055E+04-1.26983E+05 3.24578E+04 5.37395E+04
 -1       715-2.03572E+07 2.93502E+05 2.27005E+05-2.64488E+04 8.49238E+04 2.94517E+04
 -1       716-1.66728E+07-3.42748E+04 1.53542E+06 3.82654E+04 1.39661E+05-1.31270E+07
 -1       718-1.71960E+07-5.26734E+05 4.16492E+05-6.80447E+03 3.46632E+04-1.29718E+07
 -1       727-1.70560E+07-4.09386E+05-6.11467E+04-8.04558E+04 5.78777E+04 1.10191E+05
 -1       729-1.64938E+07 4.49503E+05 3.65420E+05-9.32986E+04 5.68830E+04 8.40242E+04
 -1       730-1.61905E+07-5.08778E+05 2.58791E+06 2.56251E+04 3.67946E+05-1.19104E+07
 -1       732-1.64488E+07-7.88318E+05 1.91392E+06-2.11751E+04 2.64255E+05-1.18450E+07
 -1       741-1.33912E+07-3.16050E+05-1.36786E+05-1.57089E+05 8.11050E+04 4.60757E+04
 -1       743-1.31456E+07 2.44392E+05 1.04953E+05-1.21221E+05 3.36438E+04 4.51623E+04
 -1       744-9.29503E+06 2.53092E+05 1.69083E+06 1.08678E+04 9.10878E+04-1.09928E+07
 -1       746-9.69085E+06-1.69675E+05 6.77183E+05-2.31395E+03 5.80124E+04-1.09175E+07
 -1       755-1.03468E+07-1.24811E+05 5.51653E+04-2.20503E+05 8.07924E+04 6.10571E+04
 -1       757-1.01970E+07 2.75079E+05 2.20088E+05-4.04244E+05 6.19706E+04 5.57694E+04
 -1       758-7.76775E+06-1.20779E+05 1.48988E+06 1.64280E+04 1.84745E+05-9.06781E+06
 -1       760-8.21582E+06-5.41152E+05 5.36397E+05 4.96784E+02 1.32224E+05-8.87928E+06
 -1       769-8.45054E+06-1.28455E+06-5.07532E+05-9.04069E+04 1.10272E+05 6.33913E+04
 -1       771-7.15423E+06 1.54908E+06 7.31683E+05 3.61932E+04 1.07282E+05 3.40868E+04
 -1       772-5.72441E+06-1.56376E+05 1.62361E+06 1.55755E+04 1.65362E+05-7.94489E+06
 -1       774-6.02403E+06-4.45724E+05 9.58634E+05-1.74474E+03 1.56121E+05-7.83063E+06
 -1       783-5.73768E+06-1.16180E+06-4.05600E+05 8.71009E+04 9.36178E+03 5.04645E+04
 -1       785-4.94696E+06 1.26459E+06 5.59734E+05 6.12392E+04 8.01190E+03 2.82447E+04
 -1       786-3.84401E+06-1.39054E+05 1.51199E+06 1.08807E+04 8.55808E+04-6.53491E+06
 -1       788-4.03000E+06-3.71721E+05 9.22322E+05-2.38737E+03 6.78428E+04-6.44032E+06
 -1       797-3.31558E+06 3.71606E+05 2.00320E+05-1.16999E+05 1.18694E+05 1.12038E+04
 -1       799-3.65391E+06-3.22872E+05-1.09580E+05-3.44041E+05 7.04441E+04 1.27802E+04
 -1       800-2.14289E+06 2.13879E+04 1.74178E+06 8.41346E+03 8.41154E+04-5.19355E+06
 -1       802-2.39502E+06-2.26889E+05 1.16621E+06 1.55679E+03 6.35082E+04-5.03828E+06
 -1       811-2.51424E+06-9.94724E+05-4.26498E+05 1.06816E+05-4.86144E+03 2.36736E+04
 -1       813-1.63645E+06 1.01514E+06 4.39814E+05-4.14743E+04-2.92092E+04 1.88430E+04
 -1       814-1.03453E+06 9.45036E+04 1.60661E+06 8.73963E+03-4.34776E+03-3.79731E+06
 -1       816-1.26345E+06-1.25722E+05 1.10141E+06 2.84117E+03-6.36908E+03-3.68931E+06
 -1       825-1.02594E+06-2.78077E+05-9.26257E+04-2.56980E+04 9.12847E+04 1.02718E+03
 -1       827-8.92496E+05 2.37952E+05 1.02238E+05-1.03830E+05 6.86853E+04-3.12346E+03
 -1       828-4.16984E+05 1.30789E+05 1.31146E+06-5.30179E+03 2.32257E+05-2.72538E+06
 -1       830-6.99506E+05-1.66747E+05 6.02162E+05-5.58654E+03 2.23989E+05-2.75160E+06
 -1       839-2.27991E+05 2.98230E+05 1.20161E+05-1.82724E+05 4.62941E+04-2.86666E+03
 -1       841-6.04052E+05-3.60648E+05-1.90343E+05-1.14503E+05 3.43430E+04-1.71341E+03
 -1       842 1.63153E+05 1.64134E+05 1.52520E+06 1.36673E+04 5.19699E+04-1.75676E+06
 -1       844 4.73383E+04 3.84100E+04 1.22189E+06 6.03942E+03 3.88726E+04-1.73058E+06
 -1       853-1.74417E+08-6.89247E+06-1.60588E+06-3.76412E+06 3.73370E+05-9.45227E+04
 -1       855-1.68564E+08-1.38381E+06 1.79633E+06-1.03022E+07-8.85757E+05 1.04730E+06
 -1       856-1.49720E+08 2.64326E+06 3.10797E+06-6.26392E+06 2.59499E+05-1.52199E+05
 -1       858-1.64059E+08-3.87975E+06-3.14628E+06-2.56655E+06 5.64533E+05-5.90905E+05
 -1       859-1.48285E+08-1.78312E+06-6.73180E+05-4.12063E+06 3.64336E+05 2.91910E+05
 -1       861-1.45541E+08 1.91856E+05 7.39321E+05-4.87840E+06-2.21730E+05 7.66436E+05
 -1       862-1.32705E+08 1.61343E+06 1.71358E+06-5.03282E+06 2.06802E+05 2.65105E+05
 -1       864-1.39172E+08-3.54124E+06-1.76907E+06-4.06209E+06 5.23633E+05-7.88722E+03
 -1       865-1.24431E+08-5.60568E+05 3.52717E+05-4.05856E+06 8.75133E+04 3.62278E+05
 -1       867-1.26107E+08-1.20059E+06-3.41863E+05-4.56923E+06 2.21405E+05 3.90690E+05
 -1       868-1.13820E+08 1.00270E+06 1.27232E+06-4.33272E+06 4.19834E+05 8.07579E+04
 -1       870-1.18722E+08-2.40790E+06-1.22162E+06-3.75316E+06 1.04388E+05 2.86454E+05
 -1       871-1.06606E+08-4.51802E+05 1.92717E+05-3.87279E+06 2.27708E+05 2.81577E+05
 -1       873-1.07396E+08-9.36257E+05-1.90361E+05-4.43858E+06-3.04944E+04 3.99176E+05
 -1       874-9.65401E+07-2.05831E+05 4.47495E+05-3.99325E+06 1.59489E+04 4.42867E+05
 -1       876-9.84494E+07-1.44313E+06-4.94375E+05-3.92045E+06 3.78292E+05 2.55600E+05
 -1       877-8.60214E+07 9.85223E+05 1.34582E+06-4.07599E+06 2.78332E+05 1.07954E+05
 -1       879-9.12303E+07-2.71202E+06-1.32557E+06-3.18885E+06 2.87324E+05 2.00258E+05
 -1       880-8.02326E+07-6.11806E+05 1.04676E+05-3.08514E+06 1.69304E+05 3.15619E+05
 -1       882-8.03978E+07-1.07103E+06-8.32486E+04-3.79061E+06 1.75545E+04 3.84663E+05
 -1       883-7.10996E+07 2.97602E+05 7.56230E+05-3.45168E+06 2.29098E+05 1.62253E+05
 -1       885-7.40428E+07-1.75661E+06-7.43108E+05-3.05347E+06 1.11093E+05 2.20458E+05
 -1       886-6.49734E+07-3.57342E+05 1.98520E+05-3.01185E+06 1.17829E+05 2.93346E+05
 -1       888-6.57134E+07-9.44164E+05-1.99456E+05-3.19655E+06 1.02308E+05 3.00476E+05
 -1       889-5.73220E+07 3.29214E+05 6.52127E+05-2.98176E+06 1.65633E+05 1.42621E+05
 -1       891-5.97853E+07-1.53204E+06-6.45291E+05-2.73787E+06 1.39396E+05 1.85661E+05
 -1       892-5.18953E+07-3.49911E+05 1.18621E+05-2.65623E+06 1.15080E+05 1.94353E+05
 -1       894-5.22789E+07-7.41057E+05-1.14493E+05-2.93381E+06 3.35042E+04 2.59978E+05
 -1       895-4.50805E+07-1.21301E+05 2.71630E+05-2.73003E+06 9.52513E+04 2.34388E+05
 -1       897-4.60446E+07-1.01081E+06-2.83937E+05-2.69542E+06 1.64885E+05 2.06094E+05
 -1       898-3.83774E+07 5.61268E+05 7.31574E+05-2.61766E+06 1.76484E+05 4.69031E+04
 -1       900-4.10503E+07-1.61764E+06-7.24405E+05-2.18973E+06 1.51076E+05 1.16945E+05
 -1       901-3.43451E+07-4.55107E+05-3.54530E+04-2.05072E+06 5.91427E+04 1.66689E+05
 -1       903-3.40939E+07-4.87977E+05 2.97315E+04-2.49227E+06 3.02969E+04 1.93705E+05
 -1       904-2.87207E+07-5.99384E+04 2.25510E+05-2.15766E+06 5.03745E+04 1.53641E+05
 -1       906-2.94108E+07-9.13670E+05-2.36912E+05-2.08580E+06 1.70019E+05 1.09985E+05
 -1       907-2.34924E+07 3.44193E+05 5.04493E+05-2.05652E+06 1.63387E+05 2.27092E+04
 -1       909-2.52130E+07-1.25931E+06-4.93496E+05-1.73300E+06 9.60556E+04 9.79958E+04
 -1       910-2.01268E+07-1.14650E+05 9.78248E+04-1.61816E+06 7.64615E+04 8.46403E+04
 -1       912-2.02928E+07-6.00988E+05-9.80753E+04-1.77214E+06 5.28631E+04 1.03321E+05
 -1       913-1.64055E+07-2.26639E+03 1.26197E+05-1.54362E+06 6.51968E+04 8.35040E+04
 -1       915-1.65896E+07-6.79451E+05-1.32188E+05-1.62200E+06 7.79411E+04 8.97199E+04
 -1       916-1.25385E+07 1.55097E+04 2.14054E+05-1.45465E+06 5.88650E+04 2.25791E+04
 -1       918-1.32788E+07-6.80034E+05-2.16713E+05-1.33060E+06 9.50431E+04 3.28737E+04
 -1       919-9.93466E+06 2.24330E+04 1.08176E+05-1.14793E+06 8.38749E+04 2.86664E+04
 -1       921-1.00650E+07-5.68143E+05-1.08577E+05-1.14914E+06 5.15085E+04 6.97803E+04
 -1       922-7.22434E+06 9.83130E+04 1.54114E+05-1.04795E+06 3.43620E+04 2.53609E+04
 -1       924-7.60984E+06-5.79061E+05-1.64322E+05-9.67906E+05 1.05711E+05-2.74409E+03
 -1       925-5.06652E+06 3.68909E+04 1.06292E+05-8.91882E+05 6.81520E+04-5.65639E+02
 -1       927-5.28989E+06-4.44753E+05-1.05597E+05-8.07912E+05 6.63941E+04 3.36442E+04
 -1       928-3.32958E+06 2.68993E+05 1.61546E+05-7.46304E+05 7.41021E+04 4.83508E+03
 -1       930-3.52255E+06-6.31410E+05-1.66395E+05-6.31996E+05 9.27460E+04 1.52392E+03
 -1       931-1.93411E+06-1.27106E+05 2.48115E+04-4.72052E+05 4.61661E+04 4.60399E+03
 -1       933-2.06705E+06-1.70831E+05-2.81705E+04-5.13087E+05 7.59706E+04 6.03372E+03
 -1       934-5.23660E+05 1.07890E+06 4.93745E+05-6.49652E+05 1.56644E+05-3.47623E+04
 -1       936-1.55903E+06-1.17973E+06-4.94479E+05-8.21398E+04 1.64912E+05-3.05651E+04
 -1       937-7.08363E+05 6.17572E+05 1.59943E+05-2.55348E+05 1.53316E+04 1.74476E+04
 -1       939-5.27845E+05-6.30304E+05-1.60249E+05-3.13926E+05 3.09869E+04 1.67737E+04
 -1       940-8.44322E+07-7.10034E+05-2.55259E+07-4.68527E+05 8.16498E+05-4.57848E+07
 -1       942-8.12223E+07 6.65105E+05-2.41504E+07-8.93864E+05 1.82219E+05-4.56891E+07
 -1       943-1.01509E+06-4.86409E+05-4.32780E+05-1.51852E+05 4.70513E+05-3.41814E+07
 -1       945 1.25900E+06 4.76745E+05 5.03520E+05-1.98553E+05-4.10782E+05-3.41813E+07
 -1       946 8.16992E+07-6.79142E+05 2.43228E+07-1.22345E+06 5.35421E+05-4.58048E+07
 -1       948 8.50019E+07 7.36851E+05 2.57383E+07-7.95334E+05-9.49511E+04-4.57627E+07
 -1       949 1.73963E+08 2.62570E+06 8.47507E+06 9.07644E+04-5.19537E+05-3.99033E+07
 -1       951 1.73426E+08 1.69144E+06 5.90575E+06 3.76305E+04-1.71454E+06-4.11367E+07
 -1       952 1.75571E+08 1.39034E+07-9.37776E+04-2.74340E+06 1.01035E+04-8.73207E+05
 -1       954 1.74946E+08 1.24784E+07-7.09408E+05-2.26135E+04-8.20228E+05-1.48208E+06
 -1       963 1.25276E+08 5.07657E+05 8.57880E+06-1.60715E+05 2.23336E+05-3.97642E+07
 -1       965 1.25000E+08 1.72507E+05 7.74181E+06 8.41364E+04-5.69356E+05-4.02516E+07
 -1       966 1.64152E+08 2.97581E+06 1.55037E+06 9.24074E+05 6.46010E+05 5.26710E+05
 -1       968 1.57388E+08-1.58424E+06-1.84849E+06-4.82175E+05-9.48770E+04 4.02930E+05
 -1       977 1.24607E+08 3.47082E+06-5.51753E+05-5.64515E+03-4.19214E+05-3.28902E+07
 -1       979 1.23219E+08 2.15583E+06-3.54106E+06 8.51640E+04-9.99971E+05-3.33257E+07
 -1       980 1.49851E+08 1.94851E+06 1.94006E+05 3.63403E+04-3.83354E+05-5.33588E+05
 -1       982 1.46652E+08-2.00688E+06-1.95547E+06-1.12483E+06-1.06399E+05-3.59539E+05
 -1       991 1.38232E+08 3.00804E+06-6.60373E+06-3.47654E+04 2.07266E+05-3.44707E+07
 -1       993 1.37949E+08 2.52279E+06-7.93487E+06-8.45090E+04-8.92435E+05-3.40729E+07
 -1       994 1.37360E+08 2.90430E+05-7.92409E+05 9.17728E+04 3.23064E+04 2.01628E+04
 -1       996 1.38305E+08 6.38284E+05-4.03202E+05-3.79870E+05 9.92628E+03-2.24153E+05
 -1      1005 9.70718E+07 1.42605E+06 3.31889E+06-8.65795E+04 4.40129E+05-3.33104E+07
 -1      1007 9.64220E+07 8.66359E+05 2.10509E+06 8.67782E+04-2.74620E+05-3.32889E+07
 -1      1008 1.25677E+08-9.73845E+05-1.29443E+06-7.36556E+01 8.87774E+04-1.13545E+05
 -1      1010 1.28224E+08 1.65706E+06 2.60659E+05-1.44632E+05 9.23555E+04-1.77170E+05
 -1      1019 9.82183E+07 1.80068E+06-3.43665E+06 6.11307E+04 2.07659E+05-3.23324E+07
 -1      1021 9.80257E+07 1.53220E+06-4.13817E+06-6.18428E+04-5.16082E+05-3.20991E+07
 -1      1022 1.13517E+08-8.98783E+05-1.88259E+06 2.53143E+04-3.29601E+04-5.62848E+05
 -1      1024 1.19333E+08 1.88313E+06 6.95731E+05-1.11560E+05-3.54518E+04-2.65741E+05
 -1      1033 1.08044E+08 4.07083E+05-1.96620E+06-9.97652E+04 2.54541E+05-3.18926E+07
 -1      1035 1.07767E+08 1.50644E+05-2.54374E+06-1.35885E+04-3.21165E+05-3.13402E+07
 -1      1036 1.07925E+08 1.38742E+06 3.56798E+05 3.67592E+04 4.83785E+04-2.97486E+04
 -1      1038 1.06870E+08-1.11738E+05-4.08705E+05-1.63602E+05 4.95982E+04-2.36413E+05
 -1      1047 7.44702E+07 2.73246E+05 2.53948E+06-3.43185E+04 1.45099E+05-3.04749E+07
 -1      1049 7.41789E+07 9.87897E+03 1.95329E+06 3.65609E+04-3.30657E+05-3.02067E+07
 -1      1050 9.57154E+07-1.12299E+06-1.10510E+06 2.16165E+04-9.19550E+03-2.32880E+05
 -1      1052 9.95631E+07 2.00612E+06 9.89391E+05-9.57032E+04-9.53624E+03-2.75730E+05
 -1      1061 7.36861E+07-5.14102E+05-1.29456E+06-5.71987E+04-7.16582E+04-2.64765E+07
 -1      1063 7.35556E+07-6.80178E+05-1.71734E+06 4.46154E+04-2.93533E+05-2.63440E+07
 -1      1064 8.77277E+07 2.67812E+04-2.95163E+05 1.12937E+04-2.02940E+04-5.26796E+05
 -1      1066 8.98002E+07 1.14919E+06 6.59470E+05-1.61221E+05-1.96364E+04-4.78416E+04
 -1      1075 8.10163E+07 1.47812E+06-5.06810E+06-5.10814E+04 3.12379E+05-2.65981E+07
 -1      1077 8.08591E+07 1.31071E+06-5.46883E+06 1.04741E+04-5.32521E+05-2.63882E+07
 -1      1078 8.04004E+07 3.78885E+05-5.24816E+05-6.85475E+04 1.37741E+04-2.81776E+04
 -1      1080 8.19757E+07 5.05724E+05-1.03249E+04-2.26786E+05 1.62561E+04-4.69723E+05
 -1      1089 6.11730E+07-5.99352E+05-3.70711E+06-2.95259E+04 2.29020E+05-2.75690E+07
 -1      1091 6.06446E+07-9.84905E+05-4.46347E+06 7.91235E+03-1.88958E+04-2.73680E+07
 -1      1092 7.27849E+07-2.24350E+05-7.09107E+04-4.75594E+04 4.54940E+04-2.08011E+05
 -1      1094 7.36685E+07 1.16623E+06 6.10751E+05-9.80909E+04 4.61719E+04-9.25833E+04
 -1      1103 5.00520E+07-4.33524E+05 2.15502E+06 2.92465E+03 1.48890E+05-2.53375E+07
 -1      1105 4.99693E+07-5.75154E+05 1.76573E+06 2.15783E+04-6.65701E+04-2.52501E+07
 -1      1106 6.39960E+07-3.66899E+05-5.41683E+05-1.22435E+04 3.83489E+04-4.27131E+05
 -1      1108 6.73118E+07 1.42935E+06 9.89400E+05-9.59310E+04 4.19971E+04-1.42071E+05
 -1      1117 5.86912E+07-4.98649E+04-2.75671E+06-8.14414E+04 1.54186E+05-2.38306E+07
 -1      1119 5.84598E+07-2.04059E+05-3.03960E+06-8.49115E+03-2.44190E+05-2.35042E+07
 -1      1120 5.92190E+07 5.94196E+05 2.38150E+05-1.04223E+03 2.30463E+04 1.35449E+04
 -1      1122 5.84618E+07 1.98640E+05-1.04656E+05-1.33648E+05 2.66870E+04-2.85245E+05
 -1      1131 3.93017E+07-6.66324E+05-1.09090E+06-8.40996E+03 1.31152E+05-2.28188E+07
 -1      1133 3.91510E+07-7.95849E+05-1.37213E+06 4.93739E+04-7.81967E+04-2.26541E+07
 -1      1134 5.00925E+07-6.29378E+05-5.08600E+05 4.98221E+03 3.27533E+04-3.88788E+05
 -1      1136 5.35672E+07 1.50388E+06 1.17153E+06-7.44832E+04 3.56475E+04-1.44196E+05
 -1      1145 4.55886E+07 8.08618E+05-1.61256E+06-6.72280E+04 3.39937E+04-2.11112E+07
 -1      1147 4.54565E+07 7.02352E+05-1.83518E+06-4.82657E+04-2.40119E+05-2.06376E+07
 -1      1148 4.59266E+07 5.26367E+05 6.11765E+04 1.60273E+04 5.55818E+03-2.85145E+04
 -1      1150 4.47935E+07 1.72581E+05-3.83691E+05-1.08455E+05 1.03800E+04-1.39672E+05
 -1      1159 2.90475E+07-8.35450E+05-1.01059E+06-4.85743E+03 9.95534E+04-1.93858E+07
 -1      1161 2.88095E+07-1.02655E+06-1.40974E+06 4.31536E+04-7.82440E+04-1.92370E+07
 -1      1162 3.82113E+07-4.21533E+05-2.09907E+05 1.82441E+04 3.15317E+04-2.63179E+05
 -1      1164 4.08315E+07 1.27336E+06 1.08368E+06-7.62531E+04 3.39157E+04-1.58212E+05
 -1      1173 3.39651E+07 5.03745E+05-2.01019E+06-4.54344E+04 7.35723E+04-1.76871E+07
 -1      1175 3.39039E+07 3.82145E+05-2.35456E+06-1.71541E+04-1.36185E+05-1.74629E+07
 -1      1176 3.41638E+07 2.35700E+05-8.59140E+04-8.58529E+03 1.83306E+04-7.68345E+04
 -1      1178 3.39445E+07 3.94380E+05-1.03575E+05-1.26877E+05 2.36245E+04-1.18722E+05
 -1      1187 2.44372E+07-4.73663E+05-2.03184E+06-7.81517E+03 1.68224E+05-1.74325E+07
 -1      1189 2.38913E+07-8.76160E+05-2.82773E+06 2.56921E+04 1.84402E+04-1.71749E+07
 -1      1190 2.83900E+07-1.14529E+05-8.42979E+04 8.66026E+03 4.67893E+04-1.63934E+05
 -1      1192 2.96655E+07 7.64786E+05 5.61452E+05-5.48496E+04 4.92518E+04-9.59261E+04
 -1      1201 1.87123E+07 3.85693E+05 1.05608E+06-2.58423E+04 3.37037E+04-1.53175E+07
 -1      1203 1.85170E+07 1.55849E+05 4.84961E+05 8.50439E+02-1.35563E+05-1.50579E+07
 -1      1204 2.41009E+07-6.82232E+04-2.36518E+05 5.73836E+04-1.14826E+03-7.55275E+04
 -1      1206 2.42607E+07 5.43673E+05-4.97494E+03-4.27764E+04 3.91667E+03-7.13522E+04
 -1      1215 1.64658E+07 5.20656E+04-1.43651E+06-3.28219E+03-2.82834E+04-1.33876E+07
 -1      1217 1.62595E+07-1.11850E+05-1.77684E+06 2.39854E+04-1.89380E+05-1.32503E+07
 -1      1218 1.94397E+07-1.40541E+05-2.55746E+05 8.50859E+04-4.99258E+03-1.10066E+05
 -1      1220 2.04778E+07 6.44537E+05 2.91335E+05-4.06090E+04-2.34922E+03-1.17647E+05
 -1      1229 1.61256E+07 2.62090E+05-1.29076E+06-3.22035E+04-6.76430E+04-1.23293E+07
 -1      1231 1.60010E+07 9.10569E+04-1.73643E+06 3.80498E+03-1.88845E+05-1.21791E+07
 -1      1232 1.62165E+07 8.93195E+04-7.88994E+04 3.30046E+04-4.63640E+03-6.80213E+04
 -1      1234 1.61995E+07 3.71261E+05 3.29642E+02-8.04495E+04-3.56590E+02-4.41001E+04
 -1      1243 1.08694E+07 2.28708E+03-1.65251E+06-8.15991E+03 1.06419E+05-1.14717E+07
 -1      1245 1.04833E+07-2.97228E+05-2.26501E+06 1.38318E+04-9.19960E+03-1.13053E+07
 -1      1246 1.25777E+07-1.48901E+05-1.29863E+05 2.46416E+04 2.79027E+04-6.33194E+04
 -1      1248 1.30790E+07 5.82264E+05 2.39746E+05-2.88194E+04 2.98733E+04-4.95325E+04
 -1      1257 8.19689E+06 4.14489E+04-7.22795E+05-1.19520E+04 4.27339E+04-1.04100E+07
 -1      1259 7.89026E+06-2.70415E+05-1.45590E+06-9.03752E+02-4.20384E+04-1.01538E+07
 -1      1260 9.59804E+06-8.61858E+04-8.31415E+04 5.56100E+04 1.24550E+04-4.72362E+04
 -1      1262 9.88866E+06 4.65988E+05 1.69674E+05-1.50694E+04 1.48994E+04-4.30883E+04
 -1      1271 6.10783E+06-4.27135E+04-4.56452E+05-8.71868E+03-5.17701E+03-8.78663E+06
 -1      1273 5.88093E+06-3.03304E+05-1.09830E+06 9.21327E+03-5.78120E+04-8.59885E+06
 -1      1274 7.03818E+06-3.73692E+04-2.62411E+04 1.43359E+04 7.06163E+03-3.80832E+04
 -1      1276 7.20127E+06 3.91390E+05 1.51239E+05-5.86705E+04 9.69984E+03-3.01442E+04
 -1      1285 4.23400E+06-6.74544E+04-8.85988E+05-1.35173E+04-5.05627E+04-7.19252E+06
 -1      1287 3.90903E+06-3.36656E+05-1.45845E+06 3.78250E+03-8.96839E+04-7.01549E+06
 -1      1288 4.84817E+06-1.28672E+05-5.42153E+04 4.18741E+04-4.74719E+03-3.11937E+04
 -1      1290 5.11535E+06 4.44785E+05 1.97886E+05-4.80515E+04-2.75440E+03-2.21700E+04
 -1      1299 2.55833E+06-3.35963E+04-8.21437E+05-2.06302E+03-8.58708E+03-5.98798E+06
 -1      1301 2.20546E+06-3.73327E+05-1.60109E+06 6.88115E+03-3.89528E+04-5.83883E+06
 -1      1302 3.19146E+06-8.79677E+04 2.24864E+03 6.12299E+04 3.49705E+03-1.75551E+04
 -1      1304 3.22865E+06 3.39738E+05 1.41604E+05-1.61375E+03 4.82536E+03-6.70051E+03
 -1      1313 1.31600E+06-1.00916E+05-9.24506E+05-7.41114E+03-9.76774E+04-4.46791E+06
 -1      1315 1.11517E+06-3.38771E+05-1.51659E+06 2.65624E+03-1.21791E+05-4.34984E+06
 -1      1316 1.74276E+06-1.71159E+05-3.01882E+04 4.45329E+03-2.99747E+04-1.92961E+04
 -1      1318 1.90043E+06 3.96115E+05 1.87336E+05-3.32009E+04-2.74951E+04-2.20607E+04
 -1      1327 5.72951E+05 2.57246E+04-9.58822E+05-1.22920E+04-7.67174E+04-3.05292E+06
 -1      1329 1.72147E+05-3.14917E+05-1.69354E+06-3.70056E+03-8.72906E+04-2.84398E+06
 -1      1330 7.77005E+05-1.55033E+04-8.81566E+03 7.05009E+04-7.69604E+03-3.31833E+03
 -1      1332 9.55953E+05 1.99319E+05 1.09312E+05-3.43860E+04-6.78025E+03-2.97624E+03
 -1      1341 4.68271E+04 9.52678E+04-9.36804E+05-4.24311E+03-6.72633E+04-1.44256E+06
 -1      1343-3.10968E+05-2.85866E+05-1.84947E+06-2.07780E+03-6.92501E+04-1.40023E+06
 -1      1344 1.71232E+05-9.80208E+05-2.95936E+05 6.69688E+04-3.93726E+04 1.64036E+03
 -1      1346 4.72591E+05 1.12217E+06 4.25132E+05 3.00877E+04-3.68111E+04 7.90860E+03
 -1      1355 5.83853E+04 3.37348E+04 9.82328E+05-1.46574E+03 8.00940E+02-8.19264E+05
 -1      1357 8.01783E+04-3.47966E+04 7.32114E+05 1.12175E+04 6.90567E+03-7.39540E+05
 -1      1358-1.42991E+05-8.34850E+04-2.17824E+05-2.67940E+03-6.82044E+03-9.19949E+05
 -1      1360 2.81099E+05 8.40685E+04-8.33833E+04-4.72463E+03 1.35186E+03-6.72764E+05
 -1      1361-4.13537E+05-1.57636E+05-1.22643E+06-1.68973E+04-2.32808E+04-8.45068E+05
 -1      1363 2.74987E+05 1.57289E+05-8.65185E+05-1.64872E+04-1.71870E+04-5.96193E+05
 -1      1364 1.68819E+08 1.83202E+07-7.14178E+05 6.85757E+06-9.49058E+05-1.25827E+06
 -1      1366 1.69122E+08 2.21998E+07 5.42924E+05 6.36795E+06 9.72250E+05-1.41493E+05
 -1      1367 1.62094E+08-5.45720E+05-3.38066E+05 3.24716E+06-5.87767E+05 3.28081E+05
 -1      1369 1.61428E+08 2.01003E+06 2.31167E+05 3.52959E+06 6.06814E+05 1.52079E+05
 -1      1370 1.58432E+08 1.96383E+06 3.27215E+06 3.48648E+06 7.72027E+04-6.00113E+05
 -1      1372 1.42733E+08-3.88296E+06-3.19267E+06 4.90688E+06 7.50826E+04-6.64447E+05
 -1      1373 1.42828E+08-1.12325E+04 7.98903E+05 2.47344E+06-1.70285E+05-3.04605E+05
 -1      1375 1.38300E+08-1.01417E+06-8.60027E+05 6.09085E+06 2.24658E+05-4.02078E+05
 -1      1376 1.35123E+08 1.38257E+06 1.90036E+06 2.84961E+06-2.16028E+05-2.33041E+05
 -1      1378 1.26198E+08-2.59555E+06-1.97129E+06 5.79891E+06 5.49980E+05-3.87044E+05
 -1      1379 1.24953E+08 1.78145E+06 2.27161E+06 3.12640E+06 2.39540E+04-4.19309E+05
 -1      1381 1.14430E+08-2.74473E+06-2.24390E+06 5.46512E+06 2.46785E+05-4.92186E+05
 -1      1382 1.11849E+08-2.85111E+05 4.47753E+05 2.62628E+06-3.02193E+05-4.81053E+05
 -1      1384 1.08711E+08-2.92961E+05-4.95248E+05 5.69551E+06 1.30290E+05-5.68140E+05
 -1      1385 1.04345E+08 1.19659E+06 1.44585E+06 2.99067E+06 2.80980E+04-1.29612E+05
 -1      1387 9.78015E+07-2.01313E+06-1.48053E+06 5.20287E+06 4.21482E+05-2.06790E+05
 -1      1388 9.51404E+07 1.17484E+06 1.58683E+06 2.70190E+06 1.24151E+05-4.73392E+05
 -1      1390 8.79305E+07-1.97361E+06-1.52021E+06 4.62238E+06-9.46976E+04-6.00377E+05
 -1      1391 8.51904E+07-2.63171E+04 4.52177E+05 2.43525E+06-2.12638E+05-3.09686E+05
 -1      1393 8.23384E+07-4.37689E+05-5.26477E+05 4.41273E+06 2.35902E+05-3.40259E+05
 -1      1394 7.83272E+07 9.01477E+05 1.03270E+06 2.46294E+06-6.54598E+04-2.00148E+05
 -1      1396 7.39580E+07-1.69400E+06-1.05615E+06 4.25274E+06 3.10382E+05-3.30353E+05
 -1      1397 7.14426E+07 1.39801E+06 1.52249E+06 2.58380E+06 2.04441E+05-3.13021E+05
 -1      1399 6.49679E+07-2.06680E+06-1.45962E+06 3.95218E+06-2.19654E+04-3.41341E+05
 -1      1400 6.24940E+07 1.85049E+05 4.69901E+05 2.15181E+06-1.54978E+05-3.55919E+05
 -1      1402 6.00823E+07-7.36261E+05-5.29376E+05 3.97363E+06 1.11826E+05-4.27321E+05
 -1      1403 5.62687E+07 6.16414E+05 8.39046E+05 2.45750E+06 5.87502E+04-6.28423E+04
 -1      1405 5.26602E+07-1.33270E+06-8.27185E+05 3.39138E+06 1.92717E+05-1.88916E+05
 -1      1406 4.88114E+07 4.07934E+05 5.25799E+05 2.12905E+06-7.36653E+04-3.68904E+05
 -1      1408 4.65621E+07-8.60641E+05-5.29847E+05 3.49199E+06 1.07873E+04-3.55672E+05
 -1      1409 4.31789E+07 5.71538E+05 6.46416E+05 2.14590E+06 5.33066E+04-4.26802E+04
 -1      1411 4.04382E+07-1.03099E+06-6.55271E+05 2.99055E+06 1.44606E+05-1.74121E+05
 -1      1412 3.70285E+07 4.17985E+05 4.63488E+05 1.91946E+06-4.85155E+04-2.63099E+05
 -1      1414 3.51243E+07-7.63516E+05-4.62321E+05 2.85245E+06 3.18493E+04-2.62734E+05
 -1      1415 3.19160E+07 4.11100E+05 4.30260E+05 1.80957E+06 2.65585E+04-6.32080E+04
 -1      1417 3.02354E+07-8.01165E+05-4.36632E+05 2.58928E+06 9.05304E+04-1.58004E+05
 -1      1418 2.69626E+07 5.26686E+05 4.63091E+05 1.70184E+06-9.56752E+03-1.52585E+05
 -1      1420 2.52540E+07-8.53703E+05-4.63372E+05 2.46242E+06 6.63904E+04-1.79622E+05
 -1      1421 2.23411E+07 3.52430E+05 3.25399E+05 1.61125E+06-4.24088E+04-8.65204E+04
 -1      1423 2.10335E+07-5.57808E+05-3.39235E+05 2.15259E+06 8.97369E+04-1.46899E+05
 -1      1424 1.78636E+07 1.81488E+05 1.14538E+05 1.44133E+06-3.49104E+04-9.09169E+04
 -1      1426 1.75653E+07-2.85484E+05-1.14695E+05 1.94807E+06 4.68265E+04-1.21243E+05
 -1      1427 1.45757E+07 4.72540E+05 2.71444E+05 1.32893E+06 2.49062E+04-2.98477E+04
 -1      1429 1.38536E+07-6.26114E+05-2.74369E+05 1.66969E+06 7.15496E+04-6.90564E+04
 -1      1430 1.14170E+07 5.26987E+05 3.01206E+05 1.22831E+06 3.23313E+03-5.85976E+04
 -1      1432 1.05910E+07-6.65827E+05-3.04077E+05 1.50864E+06 5.11471E+04-9.03067E+04
 -1      1433 8.32608E+06 3.72805E+05 1.55517E+05 1.02546E+06 4.63513E+03-3.53386E+04
 -1      1435 8.07824E+06-4.21590E+05-1.56841E+05 1.28075E+06 3.59935E+04-6.33723E+04
 -1      1436 5.97979E+06 3.74166E+05 1.47955E+05 8.59611E+05 2.44612E+04-1.34125E+04
 -1      1438 5.79450E+06-4.26654E+05-1.47648E+05 1.02707E+06 3.14333E+04-3.51210E+04
 -1      1439 4.09499E+06 4.34299E+05 1.62216E+05 7.38889E+05 2.80801E+04-1.77954E+04
 -1      1441 3.90913E+06-4.58269E+05-1.61103E+05 8.83422E+05 2.15942E+04-3.79805E+04
 -1      1442 2.46500E+06 5.11326E+05 1.52799E+05 5.86343E+05 3.70973E+04-7.51115E+03
 -1      1444 2.41869E+06-4.62094E+05-1.52958E+05 6.54517E+05 3.41831E+04-2.31850E+04
 -1      1445 1.28767E+06 3.78639E+05 9.63192E+04 4.07710E+05 2.42068E+04 4.68476E+03
 -1      1447 1.37049E+06-3.44621E+05-9.57398E+04 4.42223E+05 9.85765E+03-3.73549E+03
 -1      1448 3.58407E+05 3.86426E+05 6.41605E+04 3.24817E+05 5.21650E+04 2.19834E+03
 -1      1450 5.51941E+05-2.21983E+05-6.04410E+04 2.99524E+05 2.36693E+04 1.15984E+04
 -1      1451 1.75189E+08 6.46483E+06 1.31261E+06-4.21952E+06-5.78869E+05-7.11116E+05
 -1      1453 1.70237E+08 1.87153E+06-1.55765E+06-1.03696E+07 9.06452E+05 7.03962E+05
 -1      1454 1.49082E+08-3.41844E+06-3.53515E+06-7.01040E+06-5.96450E+05-7.09024E+05
 -1      1456 1.64744E+08 4.65085E+06 3.58859E+06-2.29081E+06-5.52855E+05-1.00988E+06
 -1      1457 1.45229E+08-4.18185E+06-2.42392E+06-3.68791E+06-3.03029E+05 2.01716E+04
 -1      1459 1.53104E+08 4.22881E+06 2.46478E+06-4.57495E+06-6.73263E+05 3.49396E+05
 -1      1460 1.46127E+08 3.74437E+06 2.75977E+06-4.19508E+06 7.46050E+04-4.24455E+05
 -1      1462 1.35891E+08-4.56874E+06-2.80843E+06-4.79909E+06-3.24990E+05-4.80936E+05
 -1      1463 1.36346E+08 3.79904E+06 2.85520E+06-3.62531E+06 5.09507E+04-1.88327E+05
 -1      1465 1.25551E+08-4.67951E+06-2.92941E+06-5.72192E+06-6.98915E+05-3.59937E+05
 -1      1466 1.25594E+08 3.05924E+06 2.81650E+06-3.79333E+06-5.76345E+04-3.97009E+05
 -1      1468 1.13888E+08-3.91029E+06-2.78796E+06-4.92361E+06-2.80746E+05-4.68255E+05
 -1      1469 1.12484E+08 1.19790E+06 1.08721E+06-3.15692E+06 1.76710E+05-4.39942E+05
 -1      1471 1.08023E+08-1.75025E+06-1.13570E+06-5.40565E+06-2.57342E+05-5.29222E+05
 -1      1472 1.04801E+08 2.57411E+06 2.02813E+06-3.50866E+06-1.01211E+05-9.97112E+04
 -1      1474 9.70811E+07-3.33882E+06-2.06320E+06-4.84016E+06-4.98726E+05-1.77964E+05
 -1      1475 9.55367E+07 2.44486E+06 2.16707E+06-3.16429E+06-2.08896E+05-4.40187E+05
 -1      1477 8.70725E+07-3.31754E+06-2.10134E+06-4.26070E+06 2.91000E+03-5.69948E+05
 -1      1478 8.53977E+07 1.23419E+06 1.02577E+06-2.93310E+06 1.31549E+05-2.86367E+05
 -1      1480 8.13427E+07-1.79947E+06-1.10134E+06-4.23924E+06-3.28890E+05-3.18406E+05
 -1      1481 7.80774E+07 1.70658E+06 1.36618E+06-2.89434E+06 4.08586E+04-1.89145E+05
 -1      1483 7.30272E+07-2.43228E+06-1.39040E+06-4.07592E+06-3.48418E+05-3.21895E+05
 -1      1484 7.10129E+07 1.99013E+06 1.79878E+06-2.81196E+06-2.41072E+05-2.86603E+05
 -1      1486 6.39914E+07-2.77556E+06-1.73792E+06-3.59185E+06-3.35554E+04-3.17281E+05
 -1      1487 6.21640E+07 1.06934E+06 8.78554E+05-2.44056E+06 8.87608E+04-3.25169E+05
 -1      1489 5.89540E+07-1.78199E+06-9.39772E+05-3.66442E+06-1.99266E+05-3.96631E+05
 -1      1490 5.58861E+07 1.44741E+06 1.22102E+06-2.71347E+06-1.01398E+05-4.05349E+04
 -1      1492 5.15124E+07-2.28725E+06-1.21082E+06-3.02327E+06-2.56479E+05-1.67643E+05
 -1      1493 4.84458E+07 1.22002E+06 9.19637E+05-2.35806E+06 2.09490E+04-3.42416E+05
 -1      1495 4.53925E+07-1.87588E+06-9.25775E+05-3.07839E+06-8.67948E+04-3.29011E+05
 -1      1496 4.28321E+07 1.42390E+06 1.04699E+06-2.37473E+06-1.05107E+05-1.93469E+04
 -1      1498 3.92772E+07-2.03856E+06-1.05728E+06-2.63592E+06-2.17711E+05-1.51270E+05
 -1      1499 3.66490E+07 1.19207E+06 8.47491E+05-2.14175E+06 1.71416E+03-2.40923E+05
 -1      1501 3.39652E+07-1.77635E+06-8.48562E+05-2.46529E+06-1.02392E+05-2.40631E+05
 -1      1502 3.14607E+07 1.10820E+06 7.47831E+05-2.05271E+06-6.22080E+04-4.51072E+04
 -1      1504 2.91552E+07-1.59981E+06-7.55506E+05-2.27716E+06-1.47703E+05-1.39572E+05
 -1      1505 2.65696E+07 1.23338E+06 8.01175E+05-1.83295E+06-3.54044E+04-1.25807E+05
 -1      1507 2.41830E+07-1.72962E+06-8.03700E+05-1.98640E+06-1.33924E+05-1.52275E+05
 -1      1508 2.21880E+07 1.28056E+06 7.67409E+05-1.75112E+06-2.35217E+04-6.02230E+04
 -1      1510 1.99614E+07-1.66075E+06-7.82551E+05-1.72052E+06-1.75096E+05-1.19276E+05
 -1      1511 1.77762E+07 1.02945E+06 5.37156E+05-1.58831E+06-1.59273E+04-7.50509E+04
 -1      1513 1.65864E+07-1.36842E+06-5.38990E+05-1.55254E+06-1.16269E+05-1.04191E+05
 -1      1514 1.43920E+07 1.07285E+06 5.53378E+05-1.51670E+06-5.04114E+04-2.14641E+04
 -1      1516 1.30795E+07-1.31725E+06-5.57121E+05-1.39954E+06-1.12199E+05-5.91186E+04
 -1      1517 1.12263E+07 1.02968E+06 5.40881E+05-1.31475E+06-3.47744E+04-4.23824E+04
 -1      1519 9.91769E+06-1.28199E+06-5.44944E+05-1.15729E+06-9.63703E+04-7.41369E+04
 -1      1520 8.24368E+06 9.38053E+05 4.35378E+05-1.16066E+06-4.53299E+04-1.78266E+04
 -1      1522 7.42923E+06-1.15910E+06-4.37881E+05-1.00034E+06-9.00186E+04-4.48162E+04
 -1      1523 5.96395E+06 1.05453E+06 4.56543E+05-1.04669E+06-6.64523E+04 2.13078E+03
 -1      1525 5.13405E+06-1.16171E+06-4.57119E+05-7.91306E+05-8.47502E+04-1.83306E+04
 -1      1526 4.07746E+06 1.01682E+06 4.29302E+05-8.18405E+05-6.11167E+04-7.98437E+03
 -1      1528 3.33284E+06-1.09978E+06-4.28865E+05-5.94118E+05-6.41588E+04-2.81173E+04
 -1      1529 2.45531E+06 9.08250E+05 3.60441E+05-6.81128E+05-5.90438E+04 2.35456E+03
 -1      1531 1.96173E+06-1.00549E+06-3.61615E+05-4.13402E+05-6.60156E+04-1.19996E+04
 -1      1532 1.42849E+06 1.00313E+06 3.83480E+05-5.32031E+05-6.79125E+04 2.01776E+04
 -1      1534 8.50486E+05-9.75157E+05-3.83337E+05-2.89880E+05-6.02291E+04 1.34713E+04
 -1      1535 7.96613E+05 1.22525E+06 4.89245E+05-1.75685E+05-7.49584E+04 3.48442E+03
 -1      1537-8.92286E+04-1.13926E+06-4.85773E+05-2.30125E+05-4.39795E+04-3.18785E+03
 -1      1538-4.80195E+07 9.14672E+04-1.97556E+06 4.61256E+04 2.14358E+05-3.32200E+07
 -1      1540-4.82696E+07-1.23681E+05-2.44314E+06 9.46627E+03-1.76447E+05-3.31509E+07
 -1      1541 1.10380E+07 7.51474E+04-1.57684E+06 2.28844E+03-5.06289E+03-1.31519E+07
 -1      1543 1.08347E+07-7.85893E+04-1.88597E+06-8.16421E+03 1.58616E+04-1.30895E+07
 -1      1544-3.23938E+06 5.92637E+04 1.40503E+06 1.02276E+04 9.76198E+02-7.62159E+06
 -1      1546-3.33953E+06-5.97518E+04 1.10846E+06-2.75094E+03 1.52953E+03-7.61619E+06
 -1      1547-3.74301E+05 2.82438E+04 1.02563E+06 6.42627E+03-3.47885E+03-2.93005E+06
 -1      1549-4.78506E+05-2.78424E+04 9.42900E+05 8.39174E+02 4.45726E+03-2.89356E+06
 -1      1550 4.67541E+07 1.27792E+05-2.47779E+06-2.59451E+04-4.04218E+04-2.95553E+07
 -1      1552 4.63868E+07-1.53612E+05-3.04849E+06 2.59094E+04 5.91972E+04-2.94801E+07
 -1      1553-2.58821E+07 2.71793E+05 3.76417E+06 9.90817E+03 4.30903E+04-2.59612E+07
 -1      1555-2.65204E+07-2.59677E+05 2.63035E+06-2.62172E+04-4.53903E+04-2.58126E+07
 -1      1556-2.31281E+07 6.85576E+04 1.47866E+06 8.41258E+03 5.31314E+04-1.91515E+07
 -1      1558-2.34259E+07-7.53085E+04 1.29668E+06 2.63225E+04-4.08037E+04-1.90379E+07
 -1      1559-8.51901E+07-1.72269E+05 4.58432E+06-5.41955E+04 2.28381E+04-3.95852E+07
 -1      1561-8.45685E+07 1.87538E+05 5.16340E+06 5.13248E+03-1.00018E+04-3.98917E+07
 -1      1562-5.97106E+07 2.24140E+05-5.18225E+05 3.49556E+04 2.13365E+05-3.45953E+07
 -1      1564-6.01760E+07-2.14040E+05-1.51470E+06-1.01521E+04-2.17280E+05-3.44998E+07
 -1      1565 7.26727E+07 1.77260E+05-3.46825E+06 8.70471E+03 5.58161E+04-3.46044E+07
 -1      1567 7.21926E+07-1.70754E+05-4.14775E+06 7.60644E+03-2.75103E+04-3.47427E+07
 -1      1568 4.11605E+06 3.24186E+04-7.26191E+05 1.47675E+03 1.15955E+03-8.37154E+06
 -1      1570 4.08678E+06-3.31388E+04-9.15446E+05 4.25603E+03-5.81502E+03-8.38245E+06
 -1      1571 9.53308E+05 7.88535E+04-7.30006E+05 4.03334E+03-6.96261E+02-4.17197E+06
 -1      1573 7.71453E+05-7.99009E+04-1.07731E+06 2.07263E+03 6.29172E+03-4.16071E+06
 -1      1574-9.27748E+06 8.75709E+04 1.78983E+06 1.02177E+04 7.97155E+03-1.33238E+07
 -1      1576-9.51275E+06-8.61223E+04 1.44606E+06 9.41611E+02-1.71704E+03-1.32603E+07
 -1      1577-5.04866E+07 2.98923E+04-8.62307E+05 1.56744E+04 2.01461E+05-3.11402E+07
 -1      1579-5.05815E+07-6.72041E+04-1.09133E+06-1.83797E+03-1.24202E+05-3.10574E+07
 -1      1580 3.29564E+07 1.39151E+05-2.25080E+05-7.91037E+04 1.63396E+05-2.65181E+07
 -1      1582 3.26484E+07-1.45420E+05-8.65646E+05 5.14752E+04-1.44035E+05-2.64109E+07
 -1      1583 2.92994E+07 7.02501E+04-3.50267E+05 1.72142E+04 1.04228E+04-2.54223E+07
 -1      1585 2.91966E+07-7.30049E+04-7.25051E+05-6.89016E+03 2.22897E+03-2.53889E+07
 -1      1586 1.59680E+07 1.50043E+05 1.55747E+06-1.67035E+04 7.82692E+04-2.19472E+07
 -1      1588 1.57866E+07-1.48613E+05 7.43224E+05 8.22511E+03-6.53954E+04-2.18005E+07
 -1      1589 1.23779E+07 1.50193E+05 6.69192E+05 9.11270E+03 3.78392E+04-1.83442E+07
 -1      1591 1.19842E+07-1.48286E+05 6.77954E+04 1.36960E+04-4.91406E+04-1.81981E+07
 -1      1592-1.25559E+07 1.74261E+04-5.34802E+04-3.09585E+03 4.97701E+04-2.11623E+07
 -1      1594-1.24008E+07-1.21532E+04-3.07299E+05-2.25340E+04-3.51269E+04-2.11541E+07
 -1      1595-8.04142E+06 8.30255E+04 5.49995E+05 2.21461E+03 5.28575E+04-1.67009E+07
 -1      1597-8.10154E+06-8.04457E+04 6.48210E+04-3.96231E+03-4.90356E+04-1.65557E+07
 -1      1598 8.27688E+07 1.74201E+05-2.63729E+06 3.23083E+04 4.19321E+05-4.34790E+07
 -1      1600 8.21706E+07-1.93730E+05-3.26499E+06 5.85170E+04-2.65410E+05-4.34969E+07
 -1      1601 7.68302E+07 2.86173E+05-1.79116E+06-8.21867E+04 5.55490E+04-4.34351E+07
 -1      1603 7.60616E+07-2.73247E+05-2.88766E+06-2.92458E+04-1.10194E+05-4.30463E+07
 -1      1604 6.32494E+07 3.15268E+05 1.98746E+06-3.98922E+04 2.29170E+05-3.71035E+07
 -1      1606 6.26577E+07-2.95127E+05 5.45917E+05 5.85451E+04-1.94492E+05-3.71332E+07
 -1      1607-4.12478E+05-1.10262E+05-1.14189E+05-5.43463E+03 3.57415E+05-3.79422E+07
 -1      1609 1.68537E+05 1.15768E+05 5.79732E+04-3.61153E+03-3.10595E+05-3.78668E+07
 -1      1610 1.88140E+05 6.40668E+04-7.69953E+05 1.04646E+04-5.40036E+03-1.32687E+06
 -1      1612-1.03339E+05-6.44604E+04-9.06894E+05 1.09409E+04-3.29896E+03-1.39365E+06
 -1      1613 3.87758E+07 9.87653E+04-1.65842E+06 7.72398E+04 6.11760E+04-3.58055E+07
 -1      1615 3.86418E+07-1.36649E+05-2.30912E+06-6.15142E+04-4.30758E+04-3.57374E+07
 -1      1616-5.29318E+06 1.21485E+04 6.90018E+05 1.34839E+04 2.00159E+04-1.08322E+07
 -1      1618-5.21998E+06-9.30914E+03 5.45227E+05-2.07736E+04 6.68156E+03-1.07632E+07
 -1      1619 5.25087E+06 8.79900E+04-5.99883E+05 2.47820E+03-1.04701E+04-1.18169E+07
 -1      1621 5.04265E+06-9.00681E+04-9.85164E+05 8.33102E+03 1.55833E+04-1.17477E+07
 -1      1622 7.91611E+04 4.48239E+04 1.10383E+06 2.05436E+03-1.23174E+04-1.54903E+06
 -1      1624-1.97200E+03-4.35260E+04 8.90501E+05-6.20415E+02 1.15585E+03-1.55616E+06
 -1      1625-4.06748E+07 3.64705E+04 4.03801E+06-7.50167E+04 6.39278E+04-2.72443E+07
 -1      1627-4.08869E+07-5.03783E+04 3.96070E+06 9.75969E+04-4.95924E+04-2.72739E+07
 -1      1628-8.57241E+07 2.97441E+05-1.09012E+07-1.24456E+05-1.52202E+05-4.01953E+07
 -1      1630-8.74172E+07-2.83928E+05-1.11451E+07 2.06947E+04 1.83575E+05-4.03682E+07
 -1      1631 1.22894E+07 6.25650E+04 8.62892E+05 2.43896E+03-2.09476E+04-1.61610E+07
 -1      1633 1.22280E+07-7.06367E+04 4.80516E+05 2.41238E+04 2.52316E+04-1.62870E+07
 -1      1634-2.20283E+07 4.74296E+04 1.59270E+06 2.57127E+04 1.12515E+04-2.21907E+07
 -1      1636-2.21073E+07-4.61118E+04 1.35988E+06-1.91499E+03-5.80844E+03-2.21987E+07
 -1      1637 2.66595E+07 1.50779E+05-2.09791E+06-2.52479E+04 9.32389E+04-2.40981E+07
 -1      1639 2.62390E+07-1.42124E+05-2.65389E+06-8.78305E+01-7.29518E+04-2.39447E+07
 -1      1640-6.62317E+05 7.42326E+04 1.17571E+06-4.25548E+03-1.94522E+03-4.57387E+06
 -1      1642-8.25601E+05-7.46609E+04 8.42671E+05 4.35179E+03-3.79657E+03-4.54882E+06
 -1      1643 1.87584E+06 3.99888E+04-7.49286E+05 9.77795E+02 1.69620E+03-7.32074E+06
 -1      1645 1.77329E+06-4.03801E+04-9.14657E+05 2.92985E+03 1.98908E+03-7.27010E+06
 -1      1646 8.71664E+07 1.97732E+05 1.16597E+07-2.69083E+04-2.70461E+05-4.03509E+07
 -1      1648 8.60877E+07-2.08521E+05 1.13830E+07-9.64719E+04 2.21378E+05-4.00350E+07
 -1      1649-6.36487E+07 8.95247E+04 2.92943E+05 3.46396E+04 7.40890E+04-3.52164E+07
 -1      1651-6.39286E+07-8.78645E+04-1.84025E+04-3.14842E+04-6.73755E+04-3.52972E+07
 -1      1652 8.56249E+06 1.84941E+05-2.19198E+05 2.40560E+04 1.59797E+05-3.57442E+07
 -1      1654 8.06102E+06-1.56158E+05-8.55165E+05-3.29253E+04-1.78219E+05-3.56609E+07
 -1      1655-6.21816E+07-1.61756E+05 3.80953E+06 5.03577E+04-1.11487E+05-3.33812E+07
 -1      1657-6.16593E+07 1.66363E+05 4.38194E+06-6.76322E+04 1.12800E+05-3.34529E+07
 -1      1658-1.92447E+05 7.19855E+03 1.04491E+05 1.02677E+04 1.23085E+04-3.19848E+06
 -1      1660-2.65372E+05-8.71107E+03 1.24353E+05 1.61897E+04 3.35168E+03-3.10999E+06
 -1      1661 1.58808E+06 7.01653E+04 4.66760E+05 9.92872E+03 2.71282E+04-1.42361E+07
 -1      1663 1.45330E+06-6.06975E+04 1.65097E+05-1.25318E+04-4.14261E+04-1.41113E+07
 -1      1664 1.45102E+06 1.05191E+05-1.39103E+05-1.55011E+04 1.57868E+04-9.51787E+06
 -1      1666 1.17626E+06-1.03567E+05-5.60265E+05-8.14063E+03-9.02826E+02-9.43670E+06
 -1      1667-2.85704E+07 1.26690E+04-2.77174E+06-3.23351E+03-5.64271E+04-3.18844E+07
 -1      1669-2.85468E+07 2.80902E+04-2.74345E+06-1.75438E+04 5.11865E+04-3.19204E+07
 -1      1670 5.05100E+07-6.93444E+04-1.91857E+06-4.58380E+04-8.86782E+04-3.63200E+07
 -1      1672 5.07325E+07 4.41592E+04-1.76336E+06 1.28113E+04 9.24557E+04-3.62389E+07
 -1      1673-8.19956E+07 3.81494E+05 5.38568E+06 9.74196E+04-6.56679E+04-4.26699E+07
 -1      1675-8.27626E+07-3.85314E+05 3.59424E+06 9.74371E+04-5.12244E+04-4.23072E+07
 -1      1676-3.09827E+05 2.71020E+05 2.39997E+06 4.48072E+03 7.46410E+04-2.66808E+07
 -1      1678-8.37951E+05-2.62652E+05 1.14891E+06-2.13742E+04-5.68831E+04-2.65685E+07
 -1      1679-5.19372E+06-1.06202E+05 2.17684E+05 1.48067E+04 1.74946E+04-1.26681E+07
 -1      1681-4.97670E+06 1.00262E+05 6.88892E+05 1.08309E+04 4.81371E+03-1.26748E+07
 -1      1682 4.48680E+06-6.49141E+04-8.90543E+05 1.22605E+04-1.96177E+04-9.88470E+06
 -1      1684 4.62168E+06 6.42121E+04-5.94946E+05 4.63992E+03 6.62723E+03-9.97895E+06
 -1      1685-3.29668E+07-9.84549E+03 1.90697E+06-9.90479E+03-1.03551E+05-2.91976E+07
 -1      1687-3.29109E+07 4.15313E+04 2.02320E+06 7.11045E+03 9.42201E+04-2.92881E+07
 -1      1688-3.22538E+06-6.38123E+03 9.36059E+05-2.37858E+03-3.93029E+03-9.21339E+06
 -1      1690-3.24763E+06 5.99899E+03 9.99612E+05 1.06711E+04-1.27649E+03-9.22965E+06
 -1      1691-1.70060E+06-2.12981E+04 1.14178E+06-5.44306E+02-6.99468E+03-6.15238E+06
 -1      1693-1.63918E+06 2.31009E+04 1.22843E+06-2.00660E+03 1.17936E+04-6.23017E+06
 -1      1694-2.61442E+06 1.48582E+05 8.28103E+05 3.03016E+03 2.20308E+04-2.00175E+07
 -1      1696-2.95946E+06-1.43587E+05 1.99108E+05 8.97355E+03-3.78062E+04-1.99049E+07
 -1      1697 1.21889E+06-8.18194E+04-9.31187E+05 2.15511E+03-2.06787E+04-5.63819E+06
 -1      1699 1.40474E+06 8.12395E+04-5.73473E+05-1.35000E+03-3.70226E+03-5.66458E+06
 -1      1700 4.27591E+06 9.63800E+04-2.20275E+05-5.15792E+03 3.79264E+04-2.06049E+07
 -1      1702 4.19673E+06-9.87418E+04-7.91644E+05 2.44501E+03-4.12903E+04-2.04753E+07
 -1      1703 7.91263E+06 2.51588E+05 6.72674E+05 3.93580E+04 1.75130E+05-4.06765E+07
 -1      1705 7.06511E+06-2.41561E+05-1.23882E+05-2.78433E+04-1.87708E+05-4.06870E+07
 -1      1706-3.48465E+07-1.04512E+04 4.58339E+06 1.20758E+04-9.68069E+04-2.32490E+07
 -1      1708-3.48557E+07 1.04044E+04 4.66262E+06 3.50365E+04 7.28912E+04-2.31557E+07
 -1      1709-1.32363E+07-9.89901E+04 3.70173E+05-7.67385E+03-4.41298E+04-1.51242E+07
 -1      1711-1.30203E+07 1.01025E+05 8.21392E+05 3.68360E+03 6.33368E+04-1.52743E+07
 -1      1712 4.63010E+07 5.98273E+04 1.76776E+06 1.97083E+04 8.71145E+04-3.37335E+07
 -1      1714 4.62440E+07-2.37319E+04 1.54606E+06-4.44986E+04-7.62651E+04-3.36900E+07
 -1      1715-1.46461E+07-5.21889E+04 5.78521E+05-1.93355E+04-5.29980E+04-1.75633E+07
 -1      1717-1.45816E+07 5.59604E+04 8.74943E+05 3.65035E+04 6.39146E+04-1.76276E+07
 -1      1718 1.93560E+07-2.15695E+05-1.22056E+06 6.33313E+03-5.83183E+04-1.89018E+07
 -1      1720 1.99109E+07 2.13059E+05-3.46083E+05-1.60095E+04 8.11560E+04-1.91377E+07
 -1      1721 4.14839E+06 5.47521E+04 6.37185E+05-2.00800E+04 4.90795E+04-1.73936E+07
 -1      1723 4.11859E+06-3.97224E+04 3.51765E+05-2.08835E+04-6.17176E+04-1.72845E+07
 -1      1724 3.11959E+07 2.99186E+04 1.30051E+06 2.16236E+03 1.19825E+05-2.84843E+07
 -1      1726 3.11881E+07-7.84630E+03 1.18216E+06 6.61395E+03-1.25463E+05-2.84375E+07
 -1      1727 8.13388E+04-6.76452E+04-1.02545E+06 1.71505E+03-1.09934E+04-2.88081E+06
 -1      1729 2.07932E+05 6.77518E+04-7.00710E+05 2.13587E+03-7.12655E+03-2.89773E+06
 -1      1730 2.59778E+07 9.90839E+04-8.94884E+05 1.69918E+04 8.94827E+03-2.29250E+07
 -1      1732 2.57409E+07-1.01289E+05-1.32599E+06-3.25867E+03 1.67336E+04-2.28756E+07
 -1      1733 8.13751E+04 2.67105E+03-2.14629E+04-1.03792E+03 9.37488E+03-1.54667E+06
 -1      1735-4.69636E+04-2.43367E+03 8.98431E+04 2.43683E+03 1.41736E+03-1.66523E+06
 -1      1736 1.72157E+04-1.73082E+05-1.02629E+06-2.09118E+03-1.55577E+05-4.43985E+07
 -1      1738 3.41978E+05 1.68597E+05-2.12117E+05-2.50726E+04 1.48515E+05-4.45172E+07
 -1      1739 8.92672E+06-2.37399E+04-7.58878E+05 7.72679E+03-1.70831E+03-1.50381E+07
 -1      1741 8.92122E+06 2.19147E+04-6.01255E+05-3.04104E+03 1.44315E+04-1.50626E+07
 -1      1742-5.97049E+07 4.00830E+04-2.50277E+06-3.67042E+04 3.76366E+04-3.69295E+07
 -1      1744-5.96996E+07-6.49920E+04-2.85814E+06 3.27782E+04-6.15985E+04-3.71936E+07
 -1      1745 6.92029E+07-2.49059E+05 1.59150E+05-2.72069E+04-1.62420E+05-3.96519E+07
 -1      1747 6.97584E+07 2.24239E+05 1.17956E+06 3.46216E+04 1.48753E+05-3.95670E+07
 -1      1748 1.02807E+07 1.06465E+05-4.50749E+05 6.58335E+04 1.87494E+04-3.02662E+07
 -1      1750 1.01190E+07-1.13710E+05-1.02333E+06-7.95586E+04-1.49667E+04-3.01861E+07
 -1      1751-6.08315E+06-1.01741E+05 1.80176E+05 5.91074E+03-7.55261E+04-3.10385E+07
 -1      1753-5.69029E+06 1.01977E+05 4.66569E+05 2.18556E+04 5.71013E+04-3.11414E+07
 -1      1754-1.30414E+06-1.11851E+05-1.18727E+04 2.34168E+04-6.62822E+03-7.92982E+06
 -1      1756-8.84912E+05 1.10075E+05 3.08691E+05 7.33848E+03-4.00334E+02-7.97797E+06
 -1      1757 7.17536E+04-1.18762E+05-3.45963E+05-4.66693E+03 4.10157E+03-4.73671E+06
 -1      1759 5.57442E+05 1.20122E+05-3.53964E+04-1.93471E+04-6.03037E+02-4.70038E+06
 -1      1760-3.90664E+06-1.80280E+05 1.39962E+05 2.29977E+04-3.53882E+04-1.55744E+07
 -1      1762-3.40286E+06 1.67107E+05 7.94361E+05 1.17792E+04 3.45427E+04-1.56725E+07
 -1      1763-4.56408E+05 1.49888E+05 9.15424E+05-2.18266E+04 1.95325E+04-3.01780E+07
 -1      1765-1.21208E+06-1.74187E+05 5.90760E+05-1.84444E+04 1.95176E+04-3.00956E+07
 -1      1766-1.31781E+06-5.70387E+04 2.90268E+05 3.68739E+04-2.13846E+04-1.23710E+07
 -1      1768-1.09059E+06 5.44995E+04 4.34900E+05-9.44504E+03 4.80270E+03-1.23844E+07
 -1      1769-2.00288E+07-2.14203E+05 5.74292E+06-2.28692E+04-1.87999E+05-3.70471E+07
 -1      1771-1.95930E+07 1.94368E+05 6.66964E+06 5.24315E+04 1.97469E+05-3.71631E+07
 -1      1772-8.14984E+05-1.71490E+05-4.57992E+05 4.62075E+04-3.99026E+04-2.48072E+07
 -1      1774-4.14971E+05 1.63675E+05 2.59420E+05-3.79332E+04 5.58487E+04-2.48751E+07
 -1      1775 5.38645E+04-1.74460E+05-5.07620E+05-8.64341E+02-8.29240E+04-2.28579E+07
 -1      1777 2.98150E+05 1.75013E+05 4.13348E+05 3.83799E+04 5.77330E+04-2.30558E+07
 -1      1778-2.94732E+06-2.26647E+04 2.89429E+05-5.29301E+03-4.35535E+04-1.85207E+07
 -1      1780-3.16496E+06 6.98261E+03 6.06228E+05 5.22095E+04 5.53199E+04-1.86716E+07
 -1      1781 1.94338E+05-3.39752E+04-1.07449E+05-6.19932E+03-1.31843E+04-1.09497E+07
 -1      1783 1.42020E+05 3.43330E+04 1.72639E+05 1.00062E+04 5.53777E+03-1.10283E+07
 -1      1784-2.86908E+05-3.04745E+05 1.98619E+06-1.95590E+04 1.34623E+04-4.03880E+07
 -1      1786 1.19583E+06 3.30854E+05 2.62219E+06-7.05246E+04 1.35657E+04-4.04954E+07
 -1      1787-1.31884E+04-1.42275E+05-1.34968E+06 6.12174E+04-2.65679E+05-3.97733E+07
 -1      1789 2.53656E+05 1.32753E+05-6.99604E+05 2.36338E+04 2.55137E+05-3.98366E+07
 -1      1790-1.23182E+06-2.52124E+05-8.93157E+04 1.15844E+04-1.03954E+05-2.82704E+07
 -1      1792-6.70927E+05 2.45578E+05 1.00921E+06 1.55282E+04 1.08419E+05-2.84394E+07
 -1      1793 7.70647E+05-1.14894E+05-3.95783E+06-4.34688E+04-1.66313E+05-3.29549E+07
 -1      1795 8.08472E+05 1.01133E+05-3.27516E+06 6.06905E+04 1.58360E+05-3.31274E+07
 -1      1796 8.67064E+04-1.68854E+04-4.35095E+04 2.46721E+03 8.14726E+03-6.27221E+06
 -1      1798-2.05004E+04 1.67790E+04 1.75936E+05 1.14139E+04 7.21894E+03-6.37931E+06
 -3
    1PSTEP                         8           2           1          
  100CL  102 100.0000000         682                     0    2           1
 -4  FORC        4    1
 -5  F1          1    2    1    0
 -5  F2          1    2    2    0
 -5  F3          1    2    3    0
 -5  ALL         1    2    0    0    1ALL
 -1       280 7.81155E+04-8.58653E+03 5.04503E+02
 -1       282 3.56280E+04-3.45141E+04 5.04503E+02
 -1       283 1.85480E-05-5.92042E-05-6.23768E+01
 -1       285 6.42491E-05 1.21088E-04-6.23771E+01
 -1       286-2.43480E+02-1.31417E+02 5.29361E+02
 -1       288-2.46264E+02 3.31889E+00-1.05565E+02
 -1       289 2.44400E+02-4.34297E+02-5.93082E+02
 -1       291 2.45344E+02 5.62395E+02-3.81581E+02
 -1       300 1.46265E+05 7.22308E+03 1.42196E+04
 -1       302 6.58225E+04-1.38041E+04-3.72293E+03
 -1       303 4.76177E+04-1.43342E+04 7.68284E+03
 -1       305 4.77251E+04 1.38314E+04 1.20366E+04
 -1       314-5.49803E-05-3.63671E-04-1.24753E+02
 -1       316 8.82884E-05 1.64276E-04-1.24755E+02
 -1       317 9.33740E+04 3.44999E+04 1.58002E+03
 -1       319 1.85215E+04 1.48191E+04 1.58002E+03
 -1       320-4.76750E+04 1.20766E+04 1.06959E+04
 -1       322-4.78193E+04-1.23666E+04 9.18513E+03
 -1       323-1.46045E+05 7.84766E+03 1.31223E+04
 -1       325-6.57887E+04-1.45989E+04-2.44890E+03
 -1       334-2.05178E+02 6.48992E+01 1.54570E+02
 -1       336-2.10188E+02-1.80307E+02-9.90757E+02
 -1       337 2.08019E+02-3.07107E+02 2.02535E+02
 -1       339 2.07347E+02 4.22515E+02 4.63345E+01
 -1       348-7.70011E+04-7.65313E+03 4.02901E+02
 -1       350-3.50856E+04-3.47114E+04 4.02901E+02
 -1       351 2.18157E-05 3.78714E-05-6.23770E+01
 -1       353 2.39458E-05-1.08198E-04-6.23767E+01
 -1       354 3.31969E-05 9.95441E-05-6.23771E+01
 -1       356 3.07730E-05-4.32759E-05-6.23767E+01
 -1       357-9.44055E+04 3.37434E+04 2.07738E+03
 -1       359-1.88062E+04 1.53796E+04 2.07738E+03
 -1       360-2.00633E-06 1.24059E-06-1.87131E+02
 -1       362 1.66751E-06-3.18609E-09-1.87131E+02
 -1       363-9.84885E-07-6.39445E-08-1.87131E+02
 -1       365 9.64982E-07 2.18326E-06-1.87131E+02
 -1       366-2.21103E-06 2.52830E-06-1.87131E+02
 -1       368 2.37975E-06 6.30462E-07-1.87131E+02
 -1       369-1.79902E-06-1.13590E-06-1.87131E+02
 -1       371 2.18403E-06 8.40518E-06-1.87131E+02
 -1       372-1.25724E-05 6.20735E-06-1.87131E+02
 -1       374 1.15959E-05 6.53024E-06-1.87131E+02
 -1       375-9.79646E-06-1.03405E-06-1.87131E+02
 -1       377 1.19615E-05 2.29182E-05-1.87131E+02
 -1       378-3.58095E-06 2.79920E-06-1.87130E+02
 -1       380 7.47648E-06 2.89751E-05-1.87131E+02
 -1       381-2.57556E-05-2.41602E-07-1.87130E+02
 -1       383 2.99847E-05 3.78220E-05-1.87131E+02
 -1       384-3.13965E-05-2.73582E-06-1.87130E+02
 -1       386 3.65328E-05 5.39252E-05-1.87131E+02
 -1       387-1.12798E-05-2.99649E-05-1.87130E+02
 -1       389 1.40790E-05 1.05549E-04-1.87131E+02
 -1       390-1.91269E-05-3.44401E-05-1.87130E+02
 -1       392 3.36084E-05 1.15161E-04-1.87131E+02
 -1       393-3.11944E-05-2.75472E-05-1.87130E+02
 -1       395 4.33231E-05 1.25747E-04-1.87131E+02
 -1       396-2.33317E-05-3.19994E-05-1.87130E+02
 -1       398 3.05271E-05 1.49630E-04-1.87131E+02
 -1       399-1.74293E-05-4.50120E-05-1.87130E+02
 -1       401 4.14180E-05 1.76575E-04-1.87131E+02
 -1       402-1.05660E-04-2.52876E-05-1.87130E+02
 -1       404 1.17457E-04 1.70469E-04-1.87131E+02
 -1       405-5.82871E-05-5.11899E-05-1.87130E+02
 -1       407 8.24716E-05 2.03721E-04-1.87132E+02
 -1       408 1.03187E-05-7.73661E-05-1.87130E+02
 -1       410 1.15767E-05 2.72686E-04-1.87132E+02
 -1       411-6.79535E-05-8.50827E-05-1.87130E+02
 -1       413 7.83995E-05 2.75906E-04-1.87132E+02
 -1       414-8.25811E-05-8.94390E-05-1.87130E+02
 -1       416 1.10155E-04 2.66821E-04-1.87132E+02
 -1       417 6.13414E-06-1.35056E-04-1.87130E+02
 -1       419 1.15739E-05 3.38584E-04-1.87132E+02
 -1       420-1.75767E-05-1.38355E-04-1.87130E+02
 -1       422 5.30220E-05 3.39528E-04-1.87132E+02
 -1       423-1.21783E-04-1.08547E-04-1.87130E+02
 -1       425 1.47408E-04 3.31974E-04-1.87132E+02
 -1       426-3.85853E-05-2.54554E-04-2.49506E+02
 -1       428 5.28523E-05 5.55474E-04-2.49509E+02
 -1       429-1.28351E-05-1.62986E-04-1.87130E+02
 -1       431 8.84316E-05 3.91586E-04-1.87132E+02
 -1       432-2.86761E-05-7.90371E-05-1.24753E+02
 -1       434 5.24062E-05 2.20105E-04-1.24754E+02
 -1       435-3.65681E-05-2.89973E-04-2.49506E+02
 -1       437 9.49373E-05 6.66108E-04-2.49510E+02
 -1       438 7.68974E-06-9.74346E-05-1.24754E+02
 -1       440 3.89033E-05 2.54532E-04-1.24754E+02
 -1       441-3.93260E-05-2.17668E-04-1.87130E+02
 -1       443 7.09300E-05 4.78801E-04-1.87132E+02
 -1       444-8.89529E-05-3.66208E-04-2.49506E+02
 -1       446 1.92846E-04 6.96851E-04-2.49509E+02
 -1       447-1.67559E+04-1.51219E+03-1.74058E+04
 -1       449-1.67334E+04 1.58488E+03-2.53201E+03
 -1       450 1.67402E+04 1.16379E+04 7.07551E+03
 -1       452 1.67491E+04-1.17106E+04 1.19372E+04
 -1       461-1.38785E+04 9.15028E+02 3.94058E+03
 -1       463-1.38766E+04-8.70656E+02 5.67877E+03
 -1       464 1.38792E+04 1.34209E+03-3.95899E+03
 -1       466 1.38759E+04-1.38646E+03-6.76210E+03
 -1       475-1.26312E+04-7.72007E+02-1.58716E+04
 -1       477-1.25861E+04 6.76449E+02 1.12914E+04
 -1       478 1.26069E+04 2.13676E+04 6.90645E+02
 -1       480 1.26104E+04-2.12720E+04 2.96438E+03
 -1       489-1.39173E+04 3.69066E+01 4.34807E+03
 -1       491-1.39270E+04-1.31863E+02-6.63704E+02
 -1       492 1.39224E+04-3.88619E+03-2.21643E+03
 -1       494 1.39219E+04 3.98114E+03-2.48136E+03
 -1       503-1.33559E+04-1.27015E+03-7.84884E+03
 -1       505-1.33224E+04 1.68257E+03 6.68324E+03
 -1       506 1.33341E+04 1.11998E+04-2.24145E+03
 -1       508 1.33442E+04-1.16122E+04 2.39362E+03
 -1       517-1.03695E+04-1.54572E+03-3.41566E+03
 -1       519-1.03442E+04 1.19673E+03 6.21750E+03
 -1       520 1.03513E+04 7.73542E+03-4.10428E+03
 -1       522 1.03623E+04-7.38644E+03 2.00708E+02
 -1       531-1.13820E+04-8.87729E+02-6.90420E+03
 -1       533-1.13461E+04 1.42005E+03 5.74058E+03
 -1       534 1.13588E+04 9.65856E+03-1.69209E+03
 -1       536 1.13692E+04-1.01909E+04 1.93058E+03
 -1       545-1.16252E+04-4.87231E+02 6.31136E+02
 -1       547-1.16268E+04 1.34766E+02 9.12828E+01
 -1       548 1.16246E+04-2.47490E+02-1.35612E+03
 -1       550 1.16274E+04 5.99955E+02-3.79733E+02
 -1       559-1.06790E+04-1.24632E+03-1.55116E+03
 -1       561-1.06597E+04 1.34824E+03 4.33448E+03
 -1       562 1.06627E+04 4.56861E+03-3.97895E+03
 -1       564 1.06759E+04-4.67054E+03 9.38952E+01
 -1       573-1.01072E+04-1.17556E+03-6.36900E+03
 -1       575-1.00668E+04 1.08666E+03 5.13017E+03
 -1       576 1.00807E+04 9.07002E+03-1.66286E+03
 -1       578 1.00932E+04-8.98112E+03 1.88827E+03
 -1       587-9.39096E+03-8.37228E+02-7.17419E+03
 -1       589-9.33254E+03 8.56177E+02 9.03659E+03
 -1       590 9.35680E+03 1.27142E+04-2.76703E+03
 -1       592 9.36670E+03-1.27331E+04-1.08799E+02
 -1       601-8.63321E+03-2.56577E+02-6.16676E+03
 -1       603-8.58716E+03 4.93548E+02 6.10157E+03
 -1       604 8.60798E+03 9.51080E+03-1.06287E+03
 -1       606 8.61239E+03-9.74777E+03 1.14638E+02
 -1       615-8.06818E+03-5.68456E+02-2.60595E+03
 -1       617-8.04016E+03 1.84268E+02 4.55381E+03
 -1       618 8.05182E+03 5.81172E+03-2.07144E+03
 -1       620 8.05652E+03-5.42753E+03-8.89848E+02
 -1       629-7.77115E+03-5.58316E+02-2.77399E+03
 -1       631-7.74998E+03 9.73569E+02 2.49991E+03
 -1       632 7.75584E+03 3.93181E+03-1.52787E+03
 -1       634 7.76529E+03-4.34706E+03 8.76814E+02
 -1       643-7.95168E+03-4.95946E+02-1.13361E+03
 -1       645-7.93922E+03 5.25083E+02 1.94120E+03
 -1       646 7.94223E+03 2.39882E+03-1.71189E+03
 -1       648 7.94867E+03-2.42796E+03-1.09125E+02
 -1       657-6.82677E+03-1.00571E+03 3.84023E+02
 -1       659-6.82138E+03 6.27961E+02 1.66065E+03
 -1       660 6.81866E+03 1.19089E+03-2.85543E+03
 -1       662 6.82948E+03-8.13145E+02-2.90979E+02
 -1       671-6.60053E+03-8.24142E+02-1.26933E+03
 -1       673-6.59171E+03 1.20172E+03 7.82856E+02
 -1       674 6.58931E+03 1.42196E+03-1.80938E+03
 -1       676 6.60292E+03-1.79954E+03 1.37072E+03
 -1       685-6.12688E+03-4.16270E+02 4.70243E+02
 -1       687-6.12647E+03 3.79960E+02 5.63903E+02
 -1       688 6.12400E+03 9.16721E+01-1.64873E+03
 -1       690 6.12936E+03-5.53619E+01-3.98847E+02
 -1       699-5.55152E+03-1.13214E+03-1.56032E+03
 -1       701-5.53203E+03 1.07654E+03 2.90834E+03
 -1       702 5.53422E+03 3.53521E+03-2.95841E+03
 -1       704 5.54933E+03-3.47961E+03 5.08658E+02
 -1       713-4.82237E+03-4.06643E+02-7.24597E+02
 -1       715-4.81451E+03 3.42125E+02 1.04972E+03
 -1       716 4.81583E+03 1.42491E+03-1.25697E+03
 -1       718 4.82105E+03-1.36039E+03-8.15881E+01
 -1       727-4.28717E+03-5.83570E+02-1.01585E+03
 -1       729-4.27507E+03 8.27351E+02 1.72448E+03
 -1       730 4.27624E+03 2.02898E+03-1.92428E+03
 -1       732 4.28600E+03-2.27276E+03 2.90514E+02
 -1       741-4.26567E+03-4.61052E+02 6.83370E+02
 -1       743-4.26722E+03 3.21002E+02 3.35530E+02
 -1       744 4.26372E+03-2.02987E+02-1.67413E+03
 -1       746 4.26917E+03 3.43038E+02-4.46504E+02
 -1       755-3.44502E+03-5.94635E+02-6.32102E+02
 -1       757-3.43572E+03 5.43964E+02 1.46214E+03
 -1       758 3.43640E+03 1.66909E+03-1.75302E+03
 -1       760 3.44434E+03-1.61842E+03 3.42989E+01
 -1       769-3.01788E+03-5.87718E+02-5.94659E+02
 -1       771-3.00933E+03 5.30601E+02 1.32587E+03
 -1       772 3.00969E+03 1.53597E+03-1.75006E+03
 -1       774 3.01751E+03-1.47885E+03 5.42012E+00
 -1       783-2.42927E+03-2.16066E+02-4.99136E+02
 -1       785-2.42207E+03 3.40079E+02 1.12504E+03
 -1       786 2.42373E+03 1.21280E+03-1.31855E+03
 -1       788 2.42761E+03-1.33681E+03-4.45540E+02
 -1       797-1.97582E+03-2.79057E+02 1.47986E+02
 -1       799-1.97293E+03 2.73083E+02 7.98062E+02
 -1       800 1.97245E+03 5.13231E+02-1.35072E+03
 -1       802 1.97630E+03-5.07257E+02-4.84003E+02
 -1       811-1.48503E+03-8.43405E+01 3.82608E+02
 -1       813-1.48458E+03-5.58754E+01 4.83776E+02
 -1       814 1.48470E+03 1.49518E+02-1.02462E+03
 -1       816 1.48490E+03-9.30235E+00-9.79945E+02
 -1       825-9.82412E+02-4.44359E+02 7.63954E+01
 -1       827-9.82070E+02 6.24425E+02 1.50637E+02
 -1       828 9.78536E+02-3.17566E+01-1.41494E+03
 -1       830 9.85946E+02-1.48309E+02 2.62781E+02
 -1       839-5.13646E+02-1.45718E+02 8.07667E+02
 -1       841-5.16496E+02 1.40180E+02 1.60742E+02
 -1       842 5.14082E+02-5.04992E+02-1.21531E+03
 -1       844 5.16061E+02 5.10530E+02-7.66527E+02
 -1       853-1.47022E-06 1.16607E-06-1.87131E+02
 -1       855 7.90836E-07-2.59724E-06-1.87131E+02
 -1       856-1.43131E-06-2.46465E-06-1.87131E+02
 -1       858 7.66377E-07 2.67590E-07-1.87131E+02
 -1       859-1.97709E-06-2.95120E-06-1.87131E+02
 -1       861-9.85876E-07-1.31169E-06-1.87131E+02
 -1       862-1.03880E-05-1.00684E-05-1.87131E+02
 -1       864 5.80537E-06 1.73190E-06-1.87131E+02
 -1       865-1.19696E-05-1.45056E-05-1.87131E+02
 -1       867 5.16713E-06-8.85966E-07-1.87131E+02
 -1       868-1.20630E-06-4.32350E-05-1.87130E+02
 -1       870-6.25999E-06 1.39893E-05-1.87131E+02
 -1       871-2.20401E-05-4.36287E-05-1.87130E+02
 -1       873 1.19215E-05 1.07480E-05-1.87131E+02
 -1       874-3.41095E-05-5.87372E-05-1.87130E+02
 -1       876 2.06422E-05 1.44946E-05-1.87131E+02
 -1       877-1.48452E-05-8.15330E-05-1.87130E+02
 -1       879-6.09304E-06 2.17008E-05-1.87131E+02
 -1       880-1.89746E-05-1.11810E-04-1.87130E+02
 -1       882 4.19181E-06 3.31271E-05-1.87131E+02
 -1       883-3.65941E-05-1.39012E-04-1.87130E+02
 -1       885 1.76324E-05 4.62655E-05-1.87131E+02
 -1       886-3.35484E-05-1.72134E-04-1.87130E+02
 -1       888 5.32845E-06 6.82289E-05-1.87131E+02
 -1       889-1.60879E-05-2.06666E-04-1.87130E+02
 -1       891 4.86582E-07 7.01565E-05-1.87131E+02
 -1       892-1.10730E-04-1.92861E-04-1.87130E+02
 -1       894 7.64554E-05 5.69816E-05-1.87131E+02
 -1       895-8.26398E-05-2.29836E-04-1.87130E+02
 -1       897 6.37882E-05 7.76213E-05-1.87131E+02
 -1       898-1.82939E-06-2.96214E-04-1.87130E+02
 -1       900-2.19552E-05 1.01132E-04-1.87132E+02
 -1       901-6.54855E-05-2.72062E-04-1.87130E+02
 -1       903 2.55801E-05 9.52066E-05-1.87132E+02
 -1       904-1.01542E-04-2.85530E-04-1.87130E+02
 -1       906 7.23156E-05 1.08628E-04-1.87132E+02
 -1       907-1.85744E-05-3.37246E-04-1.87130E+02
 -1       909-1.75314E-05 1.48075E-04-1.87132E+02
 -1       910-1.35356E-05-3.70744E-04-1.87130E+02
 -1       912-3.74947E-06 1.54263E-04-1.87132E+02
 -1       913-1.38157E-04-3.39333E-04-1.87130E+02
 -1       915 1.06755E-04 1.13283E-04-1.87132E+02
 -1       916-4.74122E-05-3.79267E-04-1.87130E+02
 -1       918-1.24089E-06 1.86227E-04-1.87132E+02
 -1       919-2.40613E-05-3.99433E-04-1.87130E+02
 -1       921 1.04518E-05 1.92214E-04-1.87132E+02
 -1       922-6.64270E-05-4.09717E-04-1.87130E+02
 -1       924 1.77180E-05 2.16010E-04-1.87132E+02
 -1       925-4.93920E-05-4.51617E-04-1.87130E+02
 -1       927 2.65120E-05 2.26324E-04-1.87132E+02
 -1       928-4.71424E-05-4.62538E-04-1.87130E+02
 -1       930-1.37255E-05 2.61636E-04-1.87132E+02
 -1       931-5.19956E-05-4.74798E-04-1.87130E+02
 -1       933 3.95720E-06 2.50168E-04-1.87132E+02
 -1       934-9.11707E-05-4.89216E-04-1.87130E+02
 -1       936 5.64488E-05 2.11415E-04-1.87132E+02
 -1       937-6.61356E-05-2.61541E-04-1.24753E+02
 -1       939 1.63596E-05 1.11423E-04-1.24754E+02
 -1       940 3.82200E+04 2.92931E+02 2.01507E+04
 -1       942 3.30257E+04 2.92931E+02 2.34396E+04
 -1       943 1.27844E+03-1.52805E+02-3.31026E+03
 -1       945-1.29987E+03-1.52805E+02-2.93698E+03
 -1       946-3.21706E+04 4.33961E+02 2.10813E+04
 -1       948-3.94966E+04 4.33961E+02 2.25196E+04
 -1       949-1.61954E+04-7.14570E+03 1.33003E+04
 -1       951-1.62084E+04 6.89780E+03 5.19844E+03
 -1       952 1.61951E+04-2.45663E+03-1.41850E+04
 -1       954 1.62087E+04 2.70453E+03-5.23881E+03
 -1       963-1.58299E+04-2.15357E+03-3.67992E+03
 -1       965-1.58316E+04 2.26352E+03-5.69105E+03
 -1       966 1.58293E+04-6.95554E+02 2.72769E+03
 -1       968 1.58323E+04 5.85609E+02 5.54154E+03
 -1       977-1.13357E+04-1.40291E+04 3.88023E+03
 -1       979-1.13488E+04 1.41449E+04-4.24970E+03
 -1       980 1.13271E+04-2.64744E+03-9.35831E+03
 -1       982 1.13574E+04 2.53164E+03 8.58960E+03
 -1       991-1.18139E+04-9.36520E+03 1.55578E+03
 -1       993-1.18164E+04 8.79728E+03-9.25416E+02
 -1       994 1.18047E+04-5.06343E+02-6.56282E+03
 -1       996 1.18257E+04 1.07427E+03 5.00733E+03
 -1      1005-1.41822E+04-7.32357E+03-2.26384E+03
 -1      1007-1.41795E+04 7.89183E+03-1.41849E+03
 -1      1008 1.41708E+04-1.48720E+01-3.55608E+03
 -1      1010 1.41909E+04-5.53395E+02 6.13667E+03
 -1      1019-1.13469E+04-8.34917E+03-5.03925E+02
 -1      1021-1.13503E+04 8.21160E+03-2.30519E+03
 -1      1022 1.13350E+04-5.04953E+02-4.37706E+03
 -1      1024 1.13622E+04 6.42520E+02 6.17274E+03
 -1      1033-1.11072E+04-8.42479E+02 1.00660E+03
 -1      1035-1.11079E+04 8.58877E+02 6.64204E+02
 -1      1036 1.11060E+04-1.17260E+02-1.83988E+03
 -1      1038 1.11090E+04 1.00862E+02-7.56056E+02
 -1      1047-1.25250E+04-8.30422E+02-1.74548E+03
 -1      1049-1.25287E+04 9.43596E+02-3.06281E+03
 -1      1050 1.25252E+04-4.76181E+02 1.28822E+03
 -1      1052 1.25286E+04 3.63006E+02 2.41833E+03
 -1      1061-9.39511E+03 2.85395E+03 4.79208E+02
 -1      1063-9.40183E+03-3.04393E+03-1.47166E+03
 -1      1064 9.40446E+03-5.26401E+02 1.86808E+03
 -1      1066 9.39249E+03 7.16382E+02-1.88906E+03
 -1      1075-9.33570E+03-4.59424E+03 7.15156E+01
 -1      1077-9.33762E+03 4.45552E+03-7.51181E+02
 -1      1078 9.32691E+03-1.92686E+02-3.00523E+03
 -1      1080 9.34641E+03 3.31403E+02 2.75977E+03
 -1      1089-1.00749E+04 4.12831E+03-1.63847E+03
 -1      1091-1.00726E+04-3.73107E+03-7.77884E+02
 -1      1092 1.00824E+04 7.54924E+01 3.20481E+03
 -1      1094 1.00651E+04-4.72736E+02-1.80188E+03
 -1      1103-8.44833E+03 3.31561E+03-1.46232E+03
 -1      1105-8.44704E+03-3.44253E+03-1.02287E+03
 -1      1106 8.45571E+03 2.03435E+02 2.84431E+03
 -1      1108 8.43966E+03-7.65136E+01-1.46085E+03
 -1      1117-8.45428E+03 5.02146E+02 1.62952E+02
 -1      1119-8.45578E+03-4.68119E+02-2.00637E+02
 -1      1120 8.45620E+03-1.32824E+02-1.34679E+02
 -1      1122 8.45386E+03 9.87970E+01-7.52765E+02
 -1      1131-8.49402E+03 4.91500E+03-1.89875E+03
 -1      1133-8.49341E+03-4.80505E+03-1.65692E+03
 -1      1134 8.50607E+03 2.20506E+01 4.32295E+03
 -1      1136 8.48135E+03-1.32003E+02-1.86903E+03
 -1      1145-7.30610E+03-2.52786E+03 3.77610E+02
 -1      1147-7.30849E+03 2.42590E+03-3.58192E+02
 -1      1148 7.30090E+03-1.83387E+02-2.05013E+03
 -1      1150 7.31368E+03 2.85348E+02 1.10558E+03
 -1      1159-7.18512E+03 6.26704E+03-1.61693E+03
 -1      1161-7.18519E+03-6.14664E+03-1.54406E+03
 -1      1162 7.20166E+03-3.69916E+01 4.98358E+03
 -1      1164 7.16864E+03-8.34111E+01-2.92432E+03
 -1      1173-6.16965E+03-1.55528E+03-2.18516E+02
 -1      1175-6.17058E+03 1.34233E+03-4.98988E+02
 -1      1176 6.16621E+03 1.71412E+01-1.02675E+03
 -1      1178 6.17402E+03 1.95813E+02 8.19124E+02
 -1      1187-6.26191E+03 3.52479E+03-1.42544E+03
 -1      1189-6.25895E+03-3.23442E+03-6.69168E+02
 -1      1190 6.26968E+03 9.57040E+01 2.69350E+03
 -1      1192 6.25117E+03-3.86076E+02-1.61232E+03
 -1      1201-5.51235E+03-1.81021E+03-4.63939E+02
 -1      1203-5.51546E+03 1.75687E+03-1.25022E+03
 -1      1204 5.50896E+03-2.23776E+02-8.29958E+02
 -1      1206 5.51885E+03 2.77117E+02 1.44238E+03
 -1      1215-4.93484E+03 2.01157E+02-3.63759E+02
 -1      1217-4.94003E+03-1.32171E+02-1.53742E+03
 -1      1218 4.93789E+03-4.08328E+02 5.50040E+02
 -1      1220 4.93698E+03 3.39342E+02 3.37705E+02
 -1      1229-4.32964E+03-6.93407E+02-1.67135E+02
 -1      1231-4.33374E+03 4.62350E+02-1.11190E+03
 -1      1232 4.33005E+03-1.85398E+02-1.91177E+02
 -1      1234 4.33334E+03 4.16456E+02 5.45082E+02
 -1      1243-4.05783E+03 8.48271E+02-1.17755E+03
 -1      1245-4.05633E+03-6.47748E+02-8.23160E+02
 -1      1246 4.05920E+03 1.26180E+01 9.70139E+02
 -1      1248 4.05496E+03-2.13141E+02 1.71346E+01
 -1      1257-3.56162E+03 5.59847E+02-7.56038E+02
 -1      1259-3.56245E+03-5.99198E+02-9.27424E+02
 -1      1260 3.56368E+03-3.49146E+01 7.04186E+02
 -1      1262 3.56040E+03 7.42652E+01-3.41556E+01
 -1      1271-2.96921E+03 7.94217E+02-6.10044E+02
 -1      1273-2.97118E+03-9.43616E+02-1.02999E+03
 -1      1274 2.97266E+03-5.90635E+01 8.66827E+02
 -1      1276 2.96774E+03 2.08462E+02-2.40220E+02
 -1      1285-2.40804E+03 1.08827E+03-5.13245E+02
 -1      1287-2.41177E+03-9.38769E+02-1.32736E+03
 -1      1288 2.41277E+03-3.34063E+02 1.05923E+03
 -1      1290 2.40704E+03 1.84562E+02-2.32055E+02
 -1      1299-2.04189E+03 1.03550E+03-6.32395E+02
 -1      1301-2.04374E+03-1.00379E+03-1.03175E+03
 -1      1302 2.04570E+03-1.43058E+02 9.74899E+02
 -1      1304 2.03993E+03 1.11345E+02-3.24189E+02
 -1      1313-1.47268E+03 1.00454E+03-3.14658E+02
 -1      1315-1.47816E+03-1.19954E+03-1.52247E+03
 -1      1316 1.47852E+03-2.87214E+02 1.11388E+03
 -1      1318 1.47232E+03 4.82212E+02-2.90184E+02
 -1      1327-1.00593E+03 8.34557E+02-3.45644E+02
 -1      1329-1.01035E+03-6.11314E+02-1.32762E+03
 -1      1330 1.01016E+03-4.24400E+02 7.90443E+02
 -1      1332 1.00612E+03 2.01157E+02-1.30616E+02
 -1      1341-5.65092E+02 6.17712E+02-4.24734E+02
 -1      1343-5.69613E+02-6.52628E+02-1.44389E+03
 -1      1344 5.69120E+02-3.07164E+02 9.12818E+02
 -1      1346 5.65584E+02 3.42081E+02 1.03577E+02
 -1      1355 3.06225E-06-2.04629E-04-1.32455E+02
 -1      1357 2.14563E-05 2.05244E-04-1.32455E+02
 -1      1358-2.10333E-06-1.56795E-04-1.32455E+02
 -1      1360 2.96802E-05 1.69615E-04-1.32455E+02
 -1      1361 4.67581E-06-1.00344E-04-1.32455E+02
 -1      1363 1.55691E-05 8.87635E-05-1.32455E+02
 -1      1364-1.20467E-06-8.32763E-07-1.87131E+02
 -1      1366 6.18467E-07-5.87604E-07-1.87131E+02
 -1      1367-6.18878E-07-2.02821E-07-1.87131E+02
 -1      1369 1.01767E-06-1.62044E-06-1.87131E+02
 -1      1370 4.55694E-07-7.35102E-07-1.87131E+02
 -1      1372-1.72636E-06-2.29907E-06-1.87131E+02
 -1      1373 7.64475E-07-2.08972E-06-1.87131E+02
 -1      1375-1.34412E-06-3.18590E-06-1.87131E+02
 -1      1376-1.98173E-06-7.05022E-06-1.87131E+02
 -1      1378-4.28862E-07-1.64554E-06-1.87131E+02
 -1      1379 5.35642E-06-9.97451E-06-1.87131E+02
 -1      1381-1.08286E-05-7.80909E-06-1.87131E+02
 -1      1382 5.89463E-06-1.50265E-05-1.87131E+02
 -1      1384-9.42882E-06-1.12289E-05-1.87131E+02
 -1      1385-5.00722E-06-2.60592E-05-1.87131E+02
 -1      1387-2.12335E-06-7.85160E-06-1.87130E+02
 -1      1388 2.71970E-05-1.01834E-05-1.87131E+02
 -1      1390-4.13469E-05-3.86991E-05-1.87130E+02
 -1      1391 2.59407E-05-1.28225E-05-1.87131E+02
 -1      1393-2.99194E-05-4.69376E-05-1.87130E+02
 -1      1394-2.14085E-05-2.36827E-05-1.87131E+02
 -1      1396 1.44521E-05-4.48383E-05-1.87130E+02
 -1      1397 2.08442E-06-1.92659E-05-1.87131E+02
 -1      1399-1.49343E-05-6.78486E-05-1.87130E+02
 -1      1400 2.76033E-05-1.36189E-05-1.87131E+02
 -1      1402-3.86486E-05-9.92783E-05-1.87130E+02
 -1      1403 4.77291E-06-1.22419E-05-1.87131E+02
 -1      1405-1.85315E-05-1.17748E-04-1.87130E+02
 -1      1406 5.18732E-05-1.40890E-05-1.87131E+02
 -1      1408-6.95000E-05-1.31865E-04-1.87130E+02
 -1      1409 3.51256E-05 1.82678E-06-1.87131E+02
 -1      1411-5.93391E-05-1.62688E-04-1.87130E+02
 -1      1412 6.44122E-05 1.45137E-05-1.87132E+02
 -1      1414-8.15228E-05-1.83891E-04-1.87130E+02
 -1      1415-2.33432E-05 2.49861E-05-1.87132E+02
 -1      1417-4.01428E-06-1.92697E-04-1.87130E+02
 -1      1418 1.10594E-05 2.74092E-05-1.87132E+02
 -1      1420-2.51102E-05-1.97242E-04-1.87130E+02
 -1      1421 8.66237E-05 6.30306E-05-1.87132E+02
 -1      1423-1.26145E-04-2.61655E-04-1.87130E+02
 -1      1424 1.09164E-04 8.27456E-05-1.87132E+02
 -1      1426-1.15539E-04-2.75076E-04-1.87130E+02
 -1      1427-7.87371E-06 5.58104E-05-1.87132E+02
 -1      1429-1.96946E-05-2.66154E-04-1.87130E+02
 -1      1430 1.78083E-05 8.86675E-05-1.87132E+02
 -1      1432-4.39731E-05-2.84890E-04-1.87130E+02
 -1      1433 5.01275E-05 1.08642E-04-1.87132E+02
 -1      1435-7.79170E-05-3.15484E-04-1.87130E+02
 -1      1436 5.29637E-05 1.21467E-04-1.87132E+02
 -1      1438-7.61196E-05-3.19873E-04-1.87130E+02
 -1      1439 3.77725E-05 1.33732E-04-1.87132E+02
 -1      1441-6.13278E-05-3.37398E-04-1.87130E+02
 -1      1442 1.95021E-05 1.49028E-04-1.87132E+02
 -1      1444-4.07255E-05-3.53239E-04-1.87130E+02
 -1      1445-3.34054E-05 1.56970E-04-1.87132E+02
 -1      1447-8.19293E-06-3.50155E-04-1.87130E+02
 -1      1448 2.26908E-05 2.63235E-04-2.49509E+02
 -1      1450-1.23054E-05-5.68247E-04-2.49506E+02
 -1      1451-6.98392E-07-5.60857E-10-1.87131E+02
 -1      1453 1.02932E-06 2.25144E-06-1.87131E+02
 -1      1454-2.09020E-07 6.38719E-08-1.87131E+02
 -1      1456-3.31420E-07 2.18415E-06-1.87131E+02
 -1      1457-1.98674E-07-5.43307E-07-1.24754E+02
 -1      1459 1.57642E-07 3.24648E-06-1.24754E+02
 -1      1460 9.77732E-07-1.12578E-06-1.87131E+02
 -1      1462-1.53372E-06 7.64930E-06-1.87131E+02
 -1      1463-5.76081E-08 3.29290E-06-1.87131E+02
 -1      1465-5.24352E-07 5.85356E-06-1.87131E+02
 -1      1466 8.36968E-06 8.18796E-06-1.87131E+02
 -1      1468-1.11858E-05 1.10323E-05-1.87131E+02
 -1      1469 1.04541E-05 1.52580E-05-1.87131E+02
 -1      1471-9.83576E-06 1.22466E-05-1.87131E+02
 -1      1472 9.15804E-07 3.26094E-05-1.87131E+02
 -1      1474-2.45646E-06 3.49244E-06-1.87130E+02
 -1      1475 3.67028E-05 2.84310E-05-1.87131E+02
 -1      1477-4.27990E-05 2.20100E-05-1.87130E+02
 -1      1478 3.70287E-05 4.27584E-05-1.87131E+02
 -1      1480-3.04125E-05 1.89229E-05-1.87130E+02
 -1      1481-1.04441E-05 6.50474E-05-1.87131E+02
 -1      1483 1.54871E-05 5.68400E-06-1.87130E+02
 -1      1484 1.53844E-05 8.04562E-05-1.87131E+02
 -1      1486-1.32928E-05 9.06145E-06-1.87130E+02
 -1      1487 4.46868E-05 9.39472E-05-1.87131E+02
 -1      1489-3.63861E-05 2.04873E-05-1.87130E+02
 -1      1490 2.40056E-05 1.15320E-04-1.87131E+02
 -1      1492-1.66626E-05 1.57718E-05-1.87130E+02
 -1      1493 7.29980E-05 1.45231E-04-1.87131E+02
 -1      1495-6.60650E-05 5.87245E-06-1.87130E+02
 -1      1496 6.19206E-05 1.54355E-04-1.87131E+02
 -1      1498-5.74832E-05 6.93026E-06-1.87130E+02
 -1      1499 9.19714E-05 1.76179E-04-1.87132E+02
 -1      1501-7.79736E-05-3.16954E-06-1.87130E+02
 -1      1502 5.35810E-06 1.91815E-04-1.87132E+02
 -1      1504-1.44203E-06-2.19755E-05-1.87130E+02
 -1      1505 4.24564E-05 2.23130E-04-1.87132E+02
 -1      1507-2.28229E-05-4.90724E-05-1.87130E+02
 -1      1508 1.24567E-04 2.29944E-04-1.87132E+02
 -1      1510-1.21968E-04-3.30436E-05-1.87130E+02
 -1      1511 1.45617E-04 2.51081E-04-1.87132E+02
 -1      1513-1.10748E-04-5.58543E-05-1.87130E+02
 -1      1514 2.55151E-05 3.02957E-04-1.87132E+02
 -1      1516-1.23381E-05-8.62629E-05-1.87130E+02
 -1      1517 5.25868E-05 3.00080E-04-1.87132E+02
 -1      1519-3.47511E-05-1.01667E-04-1.87130E+02
 -1      1520 8.77948E-05 3.10384E-04-1.87132E+02
 -1      1522-6.78700E-05-1.02800E-04-1.87130E+02
 -1      1523 9.06881E-05 3.24046E-04-1.87132E+02
 -1      1525-6.63188E-05-1.22403E-04-1.87130E+02
 -1      1526 7.70077E-05 3.36593E-04-1.87132E+02
 -1      1528-4.99938E-05-1.33075E-04-1.87130E+02
 -1      1529 6.11475E-05 3.49883E-04-1.87132E+02
 -1      1531-3.38563E-05-1.43192E-04-1.87130E+02
 -1      1532 9.28439E-06 3.69013E-04-1.87132E+02
 -1      1534-2.85621E-06-1.73275E-04-1.87130E+02
 -1      1535 6.06542E-05 5.56342E-04-2.49509E+02
 -1      1537 1.15758E-05-2.60828E-04-2.49506E+02
 -1      1538-2.18680E-06 8.73943E-05-2.64909E+02
 -1      1540 2.77919E-06-8.58869E-05-2.64909E+02
 -1      1541-1.97715E-05 4.89963E-04-2.64909E+02
 -1      1543 9.53891E-06-5.15222E-04-2.64909E+02
 -1      1544-1.45080E-05 2.04924E-04-2.20758E+02
 -1      1546 1.95448E-05-1.83889E-04-2.20758E+02
 -1      1547-4.22888E-05-1.17010E-04-2.64909E+02
 -1      1549 4.50383E-05 1.48658E-04-2.64909E+02
 -1      1550-5.02399E-06 2.61301E-04-3.09061E+02
 -1      1552 5.69302E-07-2.65493E-04-3.09061E+02
 -1      1553-1.63352E-05 1.15205E-04-3.09061E+02
 -1      1555 1.13061E-05-1.16857E-04-3.09061E+02
 -1      1556-1.71132E-05 2.30579E-04-2.64909E+02
 -1      1558 1.33713E-05-2.19440E-04-2.64909E+02
 -1      1559-8.83765E-07 4.88685E-06-3.09061E+02
 -1      1561 2.37136E-07-4.89891E-06-3.09061E+02
 -1      1562 4.67120E-07 3.06466E-06-1.76606E+02
 -1      1564-8.14520E-07-3.05112E-06-1.76606E+02
 -1      1565-7.77466E-07 6.52440E-05-2.64909E+02
 -1      1567 8.96052E-08-6.67168E-05-2.64909E+02
 -1      1568-1.95863E-05 2.71828E-04-2.20758E+02
 -1      1570 1.50898E-05-2.91669E-04-2.20758E+02
 -1      1571-1.84727E-05 2.70118E-04-2.20758E+02
 -1      1573 9.23978E-06-3.03340E-04-2.20758E+02
 -1      1574-2.18629E-05 3.72810E-04-3.09061E+02
 -1      1576 2.52944E-05-3.52783E-04-3.09061E+02
 -1      1577-5.72885E-06 8.76973E-05-2.20758E+02
 -1      1579 3.09727E-06-8.72040E-05-2.20758E+02
 -1      1580-1.50349E-06 1.13149E-05-1.76606E+02
 -1      1582-7.00912E-08-1.21876E-05-1.76606E+02
 -1      1583-8.59506E-06 2.52554E-05-3.53212E+02
 -1      1585 6.79646E-06-2.84789E-05-3.53212E+02
 -1      1586-5.79197E-06 1.17983E-04-2.20758E+02
 -1      1588 4.54424E-06-1.21084E-04-2.20758E+02
 -1      1589-1.51284E-05 1.64249E-04-3.09061E+02
 -1      1591 2.08895E-05-1.64698E-04-3.09061E+02
 -1      1592-6.68222E-06 1.31663E-06-2.64909E+02
 -1      1594 5.48361E-06-6.03729E-06-2.64909E+02
 -1      1595-6.80457E-06-1.70969E-05-2.64909E+02
 -1      1597 7.87338E-06 1.25147E-05-2.64909E+02
 -1      1598-1.03458E-07-2.15623E-07-1.76606E+02
 -1      1600 1.12491E-07 1.98180E-07-1.76606E+02
 -1      1601-1.25596E-08 6.03926E-06-2.64909E+02
 -1      1603-1.32725E-07-6.20287E-06-2.64909E+02
 -1      1604-7.73196E-08-1.45614E-06-1.76606E+02
 -1      1606 7.17731E-08 1.40281E-06-1.76606E+02
 -1      1607 7.65552E-08-1.92639E-07-1.76606E+02
 -1      1609-7.62181E-09 1.58485E-07-1.76606E+02
 -1      1610-1.07198E-05-2.40296E-04-2.20758E+02
 -1      1612 1.41052E-05 2.30080E-04-2.20758E+02
 -1      1613-9.92889E-07 1.69417E-05-2.20758E+02
 -1      1615 1.58966E-06-1.63830E-05-2.20758E+02
 -1      1616-2.51799E-05 2.12392E-04-2.64909E+02
 -1      1618 2.79487E-05-1.97765E-04-2.64909E+02
 -1      1619-1.74594E-05 2.07216E-04-3.09061E+02
 -1      1621 2.14622E-05-2.13212E-04-3.09061E+02
 -1      1622-2.31195E-05-3.00045E-04-2.64909E+02
 -1      1624 2.55116E-05 3.12301E-04-2.64909E+02
 -1      1625-6.39388E-06 1.31187E-04-2.20758E+02
 -1      1627 5.44485E-06-1.29663E-04-2.20758E+02
 -1      1628 4.37429E-08 7.65623E-07-3.53212E+02
 -1      1630-4.66123E-08-7.56034E-07-3.53212E+02
 -1      1631-4.14246E-06-6.88891E-05-1.76606E+02
 -1      1633 3.74924E-06 6.58275E-05-1.76606E+02
 -1      1634-6.30833E-06 1.77447E-04-2.64909E+02
 -1      1636 1.01911E-05-1.73252E-04-2.64909E+02
 -1      1637-1.44163E-06-2.70139E-05-1.76606E+02
 -1      1639 1.24389E-06 2.77461E-05-1.76606E+02
 -1      1640-3.43100E-05 7.56637E-05-3.09061E+02
 -1      1642 2.83367E-05-7.21060E-05-3.09061E+02
 -1      1643-2.84402E-05 9.19959E-05-3.09061E+02
 -1      1645 1.92838E-05-9.85292E-05-3.09061E+02
 -1      1646-1.36203E-07-6.65661E-07-3.53212E+02
 -1      1648 1.15731E-07 6.46164E-07-3.53212E+02
 -1      1649-1.88924E-07 1.29267E-05-2.64909E+02
 -1      1651 1.45021E-06-1.17602E-05-2.64909E+02
 -1      1652-2.66449E-06 5.58836E-05-3.09061E+02
 -1      1654 1.22305E-06-5.49033E-05-3.09061E+02
 -1      1655-5.42242E-06 7.70038E-05-3.09061E+02
 -1      1657 3.77625E-06-7.55693E-05-3.09061E+02
 -1      1658-1.56331E-05-2.96537E-04-2.64909E+02
 -1      1660 6.79780E-06 2.74405E-04-2.64909E+02
 -1      1661-1.88135E-05 7.63182E-05-3.09061E+02
 -1      1663 1.33133E-05-6.57145E-05-3.09061E+02
 -1      1664-1.36221E-05-8.51471E-06-2.64909E+02
 -1      1666 1.90734E-05 2.10289E-05-2.64909E+02
 -1      1667 8.26421E-07 2.57595E-05-2.64909E+02
 -1      1669-1.29595E-06-2.71979E-05-2.64909E+02
 -1      1670-4.12016E-07 3.14970E-05-3.09061E+02
 -1      1672-4.11697E-07-3.17715E-05-3.09061E+02
 -1      1673 2.16122E-07 8.92463E-07-1.76606E+02
 -1      1675-2.30681E-07-9.61310E-07-1.76606E+02
 -1      1676-5.79486E-06 7.15847E-06-1.76606E+02
 -1      1678 6.31492E-06-1.12776E-06-1.76606E+02
 -1      1679-3.16924E-06 4.12689E-05-2.20758E+02
 -1      1681 2.37044E-07-4.50078E-05-2.20758E+02
 -1      1682-1.48493E-05 1.31561E-04-2.64909E+02
 -1      1684 1.86779E-05-1.38431E-04-2.64909E+02
 -1      1685-1.10456E-05 7.79941E-05-3.09061E+02
 -1      1687 7.07250E-06-7.74093E-05-3.09061E+02
 -1      1688-1.93062E-05 1.51669E-04-3.09061E+02
 -1      1690 1.61303E-05-1.49934E-04-3.09061E+02
 -1      1691-2.67408E-05 7.41802E-05-2.64909E+02
 -1      1693 1.18968E-05-7.29900E-05-2.64909E+02
 -1      1694-1.45485E-05 1.77430E-04-3.09061E+02
 -1      1696 1.22089E-05-1.71723E-04-3.09061E+02
 -1      1697-1.14801E-05 1.75680E-04-2.64909E+02
 -1      1699 2.16732E-05-1.86765E-04-2.64909E+02
 -1      1700-6.77908E-06 1.36086E-04-2.20758E+02
 -1      1702 1.00034E-05-1.31115E-04-2.20758E+02
 -1      1703-1.89426E-08-6.46055E-08-3.09061E+02
 -1      1705-5.03408E-07-6.69079E-08-3.09061E+02
 -1      1706-1.41554E-05 3.53453E-04-2.64909E+02
 -1      1708 1.67294E-05-3.41192E-04-2.64909E+02
 -1      1709-2.54825E-05 3.39894E-04-2.20758E+02
 -1      1711 2.03567E-05-3.30965E-04-2.20758E+02
 -1      1712-1.18212E-06 1.29072E-04-2.64909E+02
 -1      1714-2.08547E-06-1.33554E-04-2.64909E+02
 -1      1715-1.36393E-05 3.37689E-04-2.64909E+02
 -1      1717 1.83281E-05-3.31483E-04-2.64909E+02
 -1      1718-1.15101E-05 4.47732E-04-3.09061E+02
 -1      1720 8.94635E-06-4.66544E-04-3.09061E+02
 -1      1721-1.12425E-05-3.49080E-05-2.64909E+02
 -1      1723 1.03858E-05 4.62075E-05-2.64909E+02
 -1      1724-2.96251E-06 1.33471E-04-3.09061E+02
 -1      1726 8.56705E-06-1.31951E-04-3.09061E+02
 -1      1727-3.03615E-05-2.13368E-04-3.09061E+02
 -1      1729 2.21622E-05 2.20169E-04-3.09061E+02
 -1      1730-1.13910E-05 3.04289E-05-3.09061E+02
 -1      1732 8.15680E-06-3.84419E-05-3.09061E+02
 -1      1733-2.57633E-05-4.21799E-04-2.64909E+02
 -1      1735 2.48263E-05 4.23080E-04-2.64909E+02
 -1      1736 2.46048E-07 1.80135E-06-3.53212E+02
 -1      1738-2.91032E-07-1.72851E-06-3.53212E+02
 -1      1739-1.31704E-05 1.50927E-04-3.09061E+02
 -1      1741 6.64506E-06-1.54005E-04-3.09061E+02
 -1      1742-1.39691E-06 2.76799E-05-3.09061E+02
 -1      1744 1.04780E-06-2.81283E-05-3.09061E+02
 -1      1745-5.03964E-07 8.96164E-06-3.53212E+02
 -1      1747 2.96188E-07-8.96057E-06-3.53212E+02
 -1      1748-6.90377E-06 8.67906E-05-2.20758E+02
 -1      1750 5.14420E-06-8.08637E-05-2.20758E+02
 -1      1751-7.32177E-06 6.40275E-05-3.09061E+02
 -1      1753 8.79650E-06-6.72298E-05-3.09061E+02
 -1      1754-2.30467E-05-7.78287E-05-2.64909E+02
 -1      1756 1.30722E-05 6.85060E-05-2.64909E+02
 -1      1757-3.25139E-05-9.55613E-05-2.64909E+02
 -1      1759 3.01173E-05 1.22004E-04-2.64909E+02
 -1      1760-1.59626E-05 9.62455E-05-2.64909E+02
 -1      1762 1.13793E-05-1.06348E-04-2.64909E+02
 -1      1763-5.09368E-06-8.59598E-06-1.76606E+02
 -1      1765 5.43637E-06 1.12583E-05-1.76606E+02
 -1      1766-5.74872E-06-8.92179E-07-2.20758E+02
 -1      1768 8.28544E-06-3.80181E-06-2.20758E+02
 -1      1769-4.47688E-07-2.86355E-06-2.64909E+02
 -1      1771 4.58262E-08 2.33971E-06-2.64909E+02
 -1      1772-8.97997E-06 7.21358E-06-3.53212E+02
 -1      1774 3.86746E-06-1.02469E-05-3.53212E+02
 -1      1775-8.56515E-06 2.37001E-05-2.64909E+02
 -1      1777 4.38812E-06-2.17284E-05-2.64909E+02
 -1      1778-5.41314E-06 4.11435E-05-2.20758E+02
 -1      1780 1.23884E-05-4.67963E-05-2.20758E+02
 -1      1781-2.16507E-05-4.89108E-05-2.64909E+02
 -1      1783 1.80198E-05 4.71549E-05-2.64909E+02
 -1      1784-5.72449E-07 4.16976E-07-1.76606E+02
 -1      1786 2.07660E-07-2.20268E-07-1.76606E+02
 -1      1787 1.65234E-08 4.24818E-06-2.64909E+02
 -1      1789 4.36951E-08-4.26206E-06-2.64909E+02
 -1      1790-6.86095E-06-1.26248E-05-3.53212E+02
 -1      1792 5.77143E-06 1.08869E-05-3.53212E+02
 -1      1793 2.16152E-06 1.91754E-05-2.64909E+02
 -1      1795-1.20844E-06-2.12986E-05-2.64909E+02
 -1      1796-3.07528E-05-8.83744E-05-2.64909E+02
 -1      1798 2.99959E-05 8.84628E-05-2.64909E+02
 -3
    1PSTEP                         9           2           1          
  100CL  102 100.0000000         682                     0    2           1
 -4  PE          1    1
 -5  PE          1    1    0    0
 -1       280 0.00000E+00
 -1       282 0.00000E+00
 -1       283 0.00000E+00
 -1       285 0.00000E+00
 -1       286 0.00000E+00
 -1       288 0.00000E+00
 -1       289 0.00000E+00
 -1       291 0.00000E+00
 -1       300 0.00000E+00
 -1       302 0.00000E+00
 -1       303 0.00000E+00
 -1       305 0.00000E+00
 -1       314 0.00000E+00
 -1       316 0.00000E+00
 -1       317 0.00000E+00
 -1       319 0.00000E+00
 -1       320 0.00000E+00
 -1       322 0.00000E+00
 -1       323 0.00000E+00
 -1       325 0.00000E+00
 -1       334 0.00000E+00
 -1       336 0.00000E+00
 -1       337 0.00000E+00
 -1       339 0.00000E+00
 -1       348 0.00000E+00
 -1       350 0.00000E+00
 -1       351 0.00000E+00
 -1       353 0.00000E+00
 -1       354 0.00000E+00
 -1       356 0.00000E+00
 -1       357 0.00000E+00
 -1       359 0.00000E+00
 -1       360 0.00000E+00
 -1       362 0.00000E+00
 -1       363 0.00000E+00
 -1       365 0.00000E+00
 -1       366 0.00000E+00
 -1       368 0.00000E+00
 -1       369 0.00000E+00
 -1       371 0.00000E+00
 -1       372 0.00000E+00
 -1       374 0.00000E+00
 -1       375 0.00000E+00
 -1       377 0.00000E+00
 -1       378 0.00000E+00
 -1       380 0.00000E+00
 -1       381 0.00000E+00
 -1       383 0.00000E+00
 -1       384 0.00000E+00
 -1       386 0.00000E+00
 -1       387 0.00000E+00
 -1       389 0.00000E+00
 -1       390 0.00000E+00
 -1       392 0.00000E+00
 -1       393 0.00000E+00
 -1       395 0.00000E+00
 -1       396 0.00000E+00
 -1       398 0.00000E+00
 -1       399 0.00000E+00
 -1       401 0.00000E+00
 -1       402 0.00000E+00
 -1       404 0.00000E+00
 -1       405 0.00000E+00
 -1       407 0.00000E+00
 -1       408 0.00000E+00
 -1       410 0.00000E+00
 -1       411 0.00000E+00
 -1       413 0.00000E+00
 -1       414 0.00000E+00
 -1       416 0.00000E+00
 -1       417 0.00000E+00
 -1       419 0.00000E+00
 -1       420 0.00000E+00
 -1       422 0.00000E+00
 -1       423 0.00000E+00
 -1       425 0.00000E+00
 -1       426 0.00000E+00
 -1       428 0.00000E+00
 -1       429 0.00000E+00
 -1       431 0.00000E+00
 -1       432 0.00000E+00
 -1       434 0.00000E+00
 -1       435 0.00000E+00
 -1       437 0.00000E+00
 -1       438 0.00000E+00
 -1       440 0.00000E+00
 -1       441 0.00000E+00
 -1       443 0.00000E+00
 -1       444 0.00000E+00
 -1       446 0.00000E+00
 -1       447 0.00000E+00
 -1       449 0.00000E+00
 -1       450 0.00000E+00
 -1       452 0.00000E+00
 -1       461 0.00000E+00
 -1       463 0.00000E+00
 -1       464 0.00000E+00
 -1       466 0.00000E+00
 -1       475 0.00000E+00
 -1       477 0.00000E+00
 -1       478 0.00000E+00
 -1       480 0.00000E+00
 -1       489 0.00000E+00
 -1       491 0.00000E+00
 -1       492 0.00000E+00
 -1       494 0.00000E+00
 -1       503 0.00000E+00
 -1       505 0.00000E+00
 -1       506 0.00000E+00
 -1       508 0.00000E+00
 -1       517 0.00000E+00
 -1       519 0.00000E+00
 -1       520 0.00000E+00
 -1       522 0.00000E+00
 -1       531 0.00000E+00
 -1       533 0.00000E+00
 -1       534 0.00000E+00
 -1       536 0.00000E+00
 -1       545 0.00000E+00
 -1       547 0.00000E+00
 -1       548 0.00000E+00
 -1       550 0.00000E+00
 -1       559 0.00000E+00
 -1       561 0.00000E+00
 -1       562 0.00000E+00
 -1       564 0.00000E+00
 -1       573 0.00000E+00
 -1       575 0.00000E+00
 -1       576 0.00000E+00
 -1       578 0.00000E+00
 -1       587 0.00000E+00
 -1       589 0.00000E+00
 -1       590 0.00000E+00
 -1       592 0.00000E+00
 -1       601 0.00000E+00
 -1       603 0.00000E+00
 -1       604 0.00000E+00
 -1       606 0.00000E+00
 -1       615 0.00000E+00
 -1       617 0.00000E+00
 -1       618 0.00000E+00
 -1       620 0.00000E+00
 -1       629 0.00000E+00
 -1       631 0.00000E+00
 -1       632 0.00000E+00
 -1       634 0.00000E+00
 -1       643 0.00000E+00
 -1       645 0.00000E+00
 -1       646 0.00000E+00
 -1       648 0.00000E+00
 -1       657 0.00000E+00
 -1       659 0.00000E+00
 -1       660 0.00000E+00
 -1       662 0.00000E+00
 -1       671 0.00000E+00
 -1       673 0.00000E+00
 -1       674 0.00000E+00
 -1       676 0.00000E+00
 -1       685 0.00000E+00
 -1       687 0.00000E+00
 -1       688 0.00000E+00
 -1       690 0.00000E+00
 -1       699 0.00000E+00
 -1       701 0.00000E+00
 -1       702 0.00000E+00
 -1       704 0.00000E+00
 -1       713 0.00000E+00
 -1       715 0.00000E+00
 -1       716 0.00000E+00
 -1       718 0.00000E+00
 -1       727 0.00000E+00
 -1       729 0.00000E+00
 -1       730 0.00000E+00
 -1       732 0.00000E+00
 -1       741 0.00000E+00
 -1       743 0.00000E+00
 -1       744 0.00000E+00
 -1       746 0.00000E+00
 -1       755 0.00000E+00
 -1       757 0.00000E+00
 -1       758 0.00000E+00
 -1       760 0.00000E+00
 -1       769 0.00000E+00
 -1       771 0.00000E+00
 -1       772 0.00000E+00
 -1       774 0.00000E+00
 -1       783 0.00000E+00
 -1       785 0.00000E+00
 -1       786 0.00000E+00
 -1       788 0.00000E+00
 -1       797 0.00000E+00
 -1       799 0.00000E+00
 -1       800 0.00000E+00
 -1       802 0.00000E+00
 -1       811 0.00000E+00
 -1       813 0.00000E+00
 -1       814 0.00000E+00
 -1       816 0.00000E+00
 -1       825 0.00000E+00
 -1       827 0.00000E+00
 -1       828 0.00000E+00
 -1       830 0.00000E+00
 -1       839 0.00000E+00
 -1       841 0.00000E+00
 -1       842 0.00000E+00
 -1       844 0.00000E+00
 -1       853 0.00000E+00
 -1       855 0.00000E+00
 -1       856 0.00000E+00
 -1       858 0.00000E+00
 -1       859 0.00000E+00
 -1       861 0.00000E+00
 -1       862 0.00000E+00
 -1       864 0.00000E+00
 -1       865 0.00000E+00
 -1       867 0.00000E+00
 -1       868 0.00000E+00
 -1       870 0.00000E+00
 -1       871 0.00000E+00
 -1       873 0.00000E+00
 -1       874 0.00000E+00
 -1       876 0.00000E+00
 -1       877 0.00000E+00
 -1       879 0.00000E+00
 -1       880 0.00000E+00
 -1       882 0.00000E+00
 -1       883 0.00000E+00
 -1       885 0.00000E+00
 -1       886 0.00000E+00
 -1       888 0.00000E+00
 -1       889 0.00000E+00
 -1       891 0.00000E+00
 -1       892 0.00000E+00
 -1       894 0.00000E+00
 -1       895 0.00000E+00
 -1       897 0.00000E+00
 -1       898 0.00000E+00
 -1       900 0.00000E+00
 -1       901 0.00000E+00
 -1       903 0.00000E+00
 -1       904 0.00000E+00
 -1       906 0.00000E+00
 -1       907 0.00000E+00
 -1       909 0.00000E+00
 -1       910 0.00000E+00
 -1       912 0.00000E+00
 -1       913 0.00000E+00
 -1       915 0.00000E+00
 -1       916 0.00000E+00
 -1       918 0.00000E+00
 -1       919 0.00000E+00
 -1       921 0.00000E+00
 -1       922 0.00000E+00
 -1       924 0.00000E+00
 -1       925 0.00000E+00
 -1       927 0.00000E+00
 -1       928 0.00000E+00
 -1       930 0.00000E+00
 -1       931 0.00000E+00
 -1       933 0.00000E+00
 -1       934 0.00000E+00
 -1       936 0.00000E+00
 -1       937 0.00000E+00
 -1       939 0.00000E+00
 -1       940 0.00000E+00
 -1       942 0.00000E+00
 -1       943 0.00000E+00
 -1       945 0.00000E+00
 -1       946 0.00000E+00
 -1       948 0.00000E+00
 -1       949 0.00000E+00
 -1       951 0.00000E+00
 -1       952 0.00000E+00
 -1       954 0.00000E+00
 -1       963 0.00000E+00
 -1       965 0.00000E+00
 -1       966 0.00000E+00
 -1       968 0.00000E+00
 -1       977 0.00000E+00
 -1       979 0.00000E+00
 -1       980 0.00000E+00
 -1       982 0.00000E+00
 -1       991 0.00000E+00
 -1       993 0.00000E+00
 -1       994 0.00000E+00
 -1       996 0.00000E+00
 -1      1005 0.00000E+00
 -1      1007 0.00000E+00
 -1      1008 0.00000E+00
 -1      1010 0.00000E+00
 -1      1019 0.00000E+00
 -1      1021 0.00000E+00
 -1      1022 0.00000E+00
 -1      1024 0.00000E+00
 -1      1033 0.00000E+00
 -1      1035 0.00000E+00
 -1      1036 0.00000E+00
 -1      1038 0.00000E+00
 -1      1047 0.00000E+00
 -1      1049 0.00000E+00
 -1      1050 0.00000E+00
 -1      1052 0.00000E+00
 -1      1061 0.00000E+00
 -1      1063 0.00000E+00
 -1      1064 0.00000E+00
 -1      1066 0.00000E+00
 -1      1075 0.00000E+00
 -1      1077 0.00000E+00
 -1      1078 0.00000E+00
 -1      1080 0.00000E+00
 -1      1089 0.00000E+00
 -1      1091 0.00000E+00
 -1      1092 0.00000E+00
 -1      1094 0.00000E+00
 -1      1103 0.00000E+00
 -1      1105 0.00000E+00
 -1      1106 0.00000E+00
 -1      1108 0.00000E+00
 -1      1117 0.00000E+00
 -1      1119 0.00000E+00
 -1      1120 0.00000E+00
 -1      1122 0.00000E+00
 -1      1131 0.00000E+00
 -1      1133 0.00000E+00
 -1      1134 0.00000E+00
 -1      1136 0.00000E+00
 -1      1145 0.00000E+00
 -1      1147 0.00000E+00
 -1      1148 0.00000E+00
 -1      1150 0.00000E+00
 -1      1159 0.00000E+00
 -1      1161 0.00000E+00
 -1      1162 0.00000E+00
 -1      1164 0.00000E+00
 -1      1173 0.00000E+00
 -1      1175 0.00000E+00
 -1      1176 0.00000E+00
 -1      1178 0.00000E+00
 -1      1187 0.00000E+00
 -1      1189 0.00000E+00
 -1      1190 0.00000E+00
 -1      1192 0.00000E+00
 -1      1201 0.00000E+00
 -1      1203 0.00000E+00
 -1      1204 0.00000E+00
 -1      1206 0.00000E+00
 -1      1215 0.00000E+00
 -1      1217 0.00000E+00
 -1      1218 0.00000E+00
 -1      1220 0.00000E+00
 -1      1229 0.00000E+00
 -1      1231 0.00000E+00
 -1      1232 0.00000E+00
 -1      1234 0.00000E+00
 -1      1243 0.00000E+00
 -1      1245 0.00000E+00
 -1      1246 0.00000E+00
 -1      1248 0.00000E+00
 -1      1257 0.00000E+00
 -1      1259 0.00000E+00
 -1      1260 0.00000E+00
 -1      1262 0.00000E+00
 -1      1271 0.00000E+00
 -1      1273 0.00000E+00
 -1      1274 0.00000E+00
 -1      1276 0.00000E+00
 -1      1285 0.00000E+00
 -1      1287 0.00000E+00
 -1      1288 0.00000E+00
 -1      1290 0.00000E+00
 -1      1299 0.00000E+00
 -1      1301 0.00000E+00
 -1      1302 0.00000E+00
 -1      1304 0.00000E+00
 -1      1313 0.00000E+00
 -1      1315 0.00000E+00
 -1      1316 0.00000E+00
 -1      1318 0.00000E+00
 -1      1327 0.00000E+00
 -1      1329 0.00000E+00
 -1      1330 0.00000E+00
 -1      1332 0.00000E+00
 -1      1341 0.00000E+00
 -1      1343 0.00000E+00
 -1      1344 0.00000E+00
 -1      1346 0.00000E+00
 -1      1355 0.00000E+00
 -1      1357 0.00000E+00
 -1      1358 0.00000E+00
 -1      1360 0.00000E+00
 -1      1361 0.00000E+00
 -1      1363 0.00000E+00
 -1      1364 0.00000E+00
 -1      1366 0.00000E+00
 -1      1367 0.00000E+00
 -1      1369 0.00000E+00
 -1      1370 0.00000E+00
 -1      1372 0.00000E+00
 -1      1373 0.00000E+00
 -1      1375 0.00000E+00
 -1      1376 0.00000E+00
 -1      1378 0.00000E+00
 -1      1379 0.00000E+00
 -1      1381 0.00000E+00
 -1      1382 0.00000E+00
 -1      1384 0.00000E+00
 -1      1385 0.00000E+00
 -1      1387 0.00000E+00
 -1      1388 0.00000E+00
 -1      1390 0.00000E+00
 -1      1391 0.00000E+00
 -1      1393 0.00000E+00
 -1      1394 0.00000E+00
 -1      1396 0.00000E+00
 -1      1397 0.00000E+00
 -1      1399 0.00000E+00
 -1      1400 0.00000E+00
 -1      1402 0.00000E+00
 -1      1403 0.00000E+00
 -1      1405 0.00000E+00
 -1      1406 0.00000E+00
 -1      1408 0.00000E+00
 -1      1409 0.00000E+00
 -1      1411 0.00000E+00
 -1      1412 0.00000E+00
 -1      1414 0.00000E+00
 -1      1415 0.00000E+00
 -1      1417 0.00000E+00
 -1      1418 0.00000E+00
 -1      1420 0.00000E+00
 -1      1421 0.00000E+00
 -1      1423 0.00000E+00
 -1      1424 0.00000E+00
 -1      1426 0.00000E+00
 -1      1427 0.00000E+00
 -1      1429 0.00000E+00
 -1      1430 0.00000E+00
 -1      1432 0.00000E+00
 -1      1433 0.00000E+00
 -1      1435 0.00000E+00
 -1      1436 0.00000E+00
 -1      1438 0.00000E+00
 -1      1439 0.00000E+00
 -1      1441 0.00000E+00
 -1      1442 0.00000E+00
 -1      1444 0.00000E+00
 -1      1445 0.00000E+00
 -1      1447 0.00000E+00
 -1      1448 0.00000E+00
 -1      1450 0.00000E+00
 -1      1451 0.00000E+00
 -1      1453 0.00000E+00
 -1      1454 0.00000E+00
 -1      1456 0.00000E+00
 -1      1457 0.00000E+00
 -1      1459 0.00000E+00
 -1      1460 0.00000E+00
 -1      1462 0.00000E+00
 -1      1463 0.00000E+00
 -1      1465 0.00000E+00
 -1      1466 0.00000E+00
 -1      1468 0.00000E+00
 -1      1469 0.00000E+00
 -1      1471 0.00000E+00
 -1      1472 0.00000E+00
 -1      1474 0.00000E+00
 -1      1475 0.00000E+00
 -1      1477 0.00000E+00
 -1      1478 0.00000E+00
 -1      1480 0.00000E+00
 -1      1481 0.00000E+00
 -1      1483 0.00000E+00
 -1      1484 0.00000E+00
 -1      1486 0.00000E+00
 -1      1487 0.00000E+00
 -1      1489 0.00000E+00
 -1      1490 0.00000E+00
 -1      1492 0.00000E+00
 -1      1493 0.00000E+00
 -1      1495 0.00000E+00
 -1      1496 0.00000E+00
 -1      1498 0.00000E+00
 -1      1499 0.00000E+00
 -1      1501 0.00000E+00
 -1      1502 0.00000E+00
 -1      1504 0.00000E+00
 -1      1505 0.00000E+00
 -1      1507 0.00000E+00
 -1      1508 0.00000E+00
 -1      1510 0.00000E+00
 -1      1511 0.00000E+00
 -1      1513 0.00000E+00
 -1      1514 0.00000E+00
 -1      1516 0.00000E+00
 -1      1517 0.00000E+00
 -1      1519 0.00000E+00
 -1      1520 0.00000E+00
 -1      1522 0.00000E+00
 -1      1523 0.00000E+00
 -1      1525 0.00000E+00
 -1      1526 0.00000E+00
 -1      1528 0.00000E+00
 -1      1529 0.00000E+00
 -1      1531 0.00000E+00
 -1      1532 0.00000E+00
 -1      1534 0.00000E+00
 -1      1535 0.00000E+00
 -1      1537 0.00000E+00
 -1      1538 0.00000E+00
 -1      1540 0.00000E+00
 -1      1541 0.00000E+00
 -1      1543 0.00000E+00
 -1      1544 0.00000E+00
 -1      1546 0.00000E+00
 -1      1547 0.00000E+00
 -1      1549 0.00000E+00
 -1      1550 0.00000E+00
 -1      1552 0.00000E+00
 -1      1553 0.00000E+00
 -1      1555 0.00000E+00
 -1      1556 0.00000E+00
 -1      1558 0.00000E+00
 -1      1559 0.00000E+00
 -1      1561 0.00000E+00
 -1      1562 0.00000E+00
 -1      1564 0.00000E+00
 -1      1565 0.00000E+00
 -1      1567 0.00000E+00
 -1      1568 0.00000E+00
 -1      1570 0.00000E+00
 -1      1571 0.00000E+00
 -1      1573 0.00000E+00
 -1      1574 0.00000E+00
 -1      1576 0.00000E+00
 -1      1577 0.00000E+00
 -1      1579 0.00000E+00
 -1      1580 0.00000E+00
 -1      1582 0.00000E+00
 -1      1583 0.00000E+00
 -1      1585 0.00000E+00
 -1      1586 0.00000E+00
 -1      1588 0.00000E+00
 -1      1589 0.00000E+00
 -1      1591 0.00000E+00
 -1      1592 0.00000E+00
 -1      1594 0.00000E+00
 -1      1595 0.00000E+00
 -1      1597 0.00000E+00
 -1      1598 0.00000E+00
 -1      1600 0.00000E+00
 -1      1601 0.00000E+00
 -1      1603 0.00000E+00
 -1      1604 0.00000E+00
 -1      1606 0.00000E+00
 -1      1607 0.00000E+00
 -1      1609 0.00000E+00
 -1      1610 0.00000E+00
 -1      1612 0.00000E+00
 -1      1613 0.00000E+00
 -1      1615 0.00000E+00
 -1      1616 0.00000E+00
 -1      1618 0.00000E+00
 -1      1619 0.00000E+00
 -1      1621 0.00000E+00
 -1      1622 0.00000E+00
 -1      1624 0.00000E+00
 -1      1625 0.00000E+00
 -1      1627 0.00000E+00
 -1      1628 0.00000E+00
 -1      1630 0.00000E+00
 -1      1631 0.00000E+00
 -1      1633 0.00000E+00
 -1      1634 0.00000E+00
 -1      1636 0.00000E+00
 -1      1637 0.00000E+00
 -1      1639 0.00000E+00
 -1      1640 0.00000E+00
 -1      1642 0.00000E+00
 -1      1643 0.00000E+00
 -1      1645 0.00000E+00
 -1      1646 0.00000E+00
 -1      1648 0.00000E+00
 -1      1649 0.00000E+00
 -1      1651 0.00000E+00
 -1      1652 0.00000E+00
 -1      1654 0.00000E+00
 -1      1655 0.00000E+00
 -1      1657 0.00000E+00
 -1      1658 0.00000E+00
 -1      1660 0.00000E+00
 -1      1661 0.00000E+00
 -1      1663 0.00000E+00
 -1      1664 0.00000E+00
 -1      1666 0.00000E+00
 -1      1667 0.00000E+00
 -1      1669 0.00000E+00
 -1      1670 0.00000E+00
 -1      1672 0.00000E+00
 -1      1673 0.00000E+00
 -1      1675 0.00000E+00
 -1      1676 0.00000E+00
 -1      1678 0.00000E+00
 -1      1679 0.00000E+00
 -1      1681 0.00000E+00
 -1      1682 0.00000E+00
 -1      1684 0.00000E+00
 -1      1685 0.00000E+00
 -1      1687 0.00000E+00
 -1      1688 0.00000E+00
 -1      1690 0.00000E+00
 -1      1691 0.00000E+00
 -1      1693 0.00000E+00
 -1      1694 0.00000E+00
 -1      1696 0.00000E+00
 -1      1697 0.00000E+00
 -1      1699 0.00000E+00
 -1      1700 0.00000E+00
 -1      1702 0.00000E+00
 -1      1703 0.00000E+00
 -1      1705 0.00000E+00
 -1      1706 0.00000E+00
 -1      1708 0.00000E+00
 -1      1709 0.00000E+00
 -1      1711 0.00000E+00
 -1      1712 0.00000E+00
 -1      1714 0.00000E+00
 -1      1715 0.00000E+00
 -1      1717 0.00000E+00
 -1      1718 0.00000E+00
 -1      1720 0.00000E+00
 -1      1721 0.00000E+00
 -1      1723 0.00000E+00
 -1      1724 0.00000E+00
 -1      1726 0.00000E+00
 -1      1727 0.00000E+00
 -1      1729 0.00000E+00
 -1      1730 0.00000E+00
 -1      1732 0.00000E+00
 -1      1733 0.00000E+00
 -1      1735 0.00000E+00
 -1      1736 0.00000E+00
 -1      1738 0.00000E+00
 -1      1739 0.00000E+00
 -1      1741 0.00000E+00
 -1      1742 0.00000E+00
 -1      1744 0.00000E+00
 -1      1745 0.00000E+00
 -1      1747 0.00000E+00
 -1      1748 0.00000E+00
 -1      1750 0.00000E+00
 -1      1751 0.00000E+00
 -1      1753 0.00000E+00
 -1      1754 0.00000E+00
 -1      1756 0.00000E+00
 -1      1757 0.00000E+00
 -1      1759 0.00000E+00
 -1      1760 0.00000E+00
 -1      1762 0.00000E+00
 -1      1763 0.00000E+00
 -1      1765 0.00000E+00
 -1      1766 0.00000E+00
 -1      1768 0.00000E+00
 -1      1769 0.00000E+00
 -1      1771 0.00000E+00
 -1      1772 0.00000E+00
 -1      1774 0.00000E+00
 -1      1775 0.00000E+00
 -1      1777 0.00000E+00
 -1      1778 0.00000E+00
 -1      1780 0.00000E+00
 -1      1781 0.00000E+00
 -1      1783 0.00000E+00
 -1      1784 0.00000E+00
 -1      1786 0.00000E+00
 -1      1787 0.00000E+00
 -1      1789 0.00000E+00
 -1      1790 0.00000E+00
 -1      1792 0.00000E+00
 -1      1793 0.00000E+00
 -1      1795 0.00000E+00
 -1      1796 0.00000E+00
 -1      1798 0.00000E+00
 -3
    1PSTEP                        10           2           1          
  100CL  102 100.0000000         682                     0    2           1
 -4  ERROR       1    1
 -5  STR(%)      1    1    0    0
 -1       280 0.00000E+00
 -1       282 0.00000E+00
 -1       283 0.00000E+00
 -1       285 0.00000E+00
 -1       286 0.00000E+00
 -1       288 0.00000E+00
 -1       289 0.00000E+00
 -1       291 0.00000E+00
 -1       300 0.00000E+00
 -1       302 0.00000E+00
 -1       303 0.00000E+00
 -1       305 0.00000E+00
 -1       314 0.00000E+00
 -1       316 0.00000E+00
 -1       317 0.00000E+00
 -1       319 0.00000E+00
 -1       320 0.00000E+00
 -1       322 0.00000E+00
 -1       323 0.00000E+00
 -1       325 0.00000E+00
 -1       334 0.00000E+00
 -1       336 0.00000E+00
 -1       337 0.00000E+00
 -1       339 0.00000E+00
 -1       348 0.00000E+00
 -1       350 0.00000E+00
 -1       351 0.00000E+00
 -1       353 0.00000E+00
 -1       354 0.00000E+00
 -1       356 0.00000E+00
 -1       357 0.00000E+00
 -1       359 0.00000E+00
 -1       360 0.00000E+00
 -1       362 0.00000E+00
 -1       363 0.00000E+00
 -1       365 0.00000E+00
 -1       366 0.00000E+00
 -1       368 0.00000E+00
 -1       369 0.00000E+00
 -1       371 0.00000E+00
 -1       372 0.00000E+00
 -1       374 0.00000E+00
 -1       375 0.00000E+00
 -1       377 0.00000E+00
 -1       378 0.00000E+00
 -1       380 0.00000E+00
 -1       381 0.00000E+00
 -1       383 0.00000E+00
 -1       384 0.00000E+00
 -1       386 0.00000E+00
 -1       387 0.00000E+00
 -1       389 0.00000E+00
 -1       390 0.00000E+00
 -1       392 0.00000E+00
 -1       393 0.00000E+00
 -1       395 0.00000E+00
 -1       396 0.00000E+00
 -1       398 0.00000E+00
 -1       399 0.00000E+00
 -1       401 0.00000E+00
 -1       402 0.00000E+00
 -1       404 0.00000E+00
 -1       405 0.00000E+00
 -1       407 0.00000E+00
 -1       408 0.00000E+00
 -1       410 0.00000E+00
 -1       411 0.00000E+00
 -1       413 0.00000E+00
 -1       414 0.00000E+00
 -1       416 0.00000E+00
 -1       417 0.00000E+00
 -1       419 0.00000E+00
 -1       420 0.00000E+00
 -1       422 0.00000E+00
 -1       423 0.00000E+00
 -1       425 0.00000E+00
 -1       426 0.00000E+00
 -1       428 0.00000E+00
 -1       429 0.00000E+00
 -1       431 0.00000E+00
 -1       432 0.00000E+00
 -1       434 0.00000E+00
 -1       435 0.00000E+00
 -1       437 0.00000E+00
 -1       438 0.00000E+00
 -1       440 0.00000E+00
 -1       441 0.00000E+00
 -1       443 0.00000E+00
 -1       444 0.00000E+00
 -1       446 0.00000E+00
 -1       447 0.00000E+00
 -1       449 0.00000E+00
 -1       450 0.00000E+00
 -1       452 0.00000E+00
 -1       461 0.00000E+00
 -1       463 0.00000E+00
 -1       464 0.00000E+00
 -1       466 0.00000E+00
 -1       475 0.00000E+00
 -1       477 0.00000E+00
 -1       478 0.00000E+00
 -1       480 0.00000E+00
 -1       489 0.00000E+00
 -1       491 0.00000E+00
 -1       492 0.00000E+00
 -1       494 0.00000E+00
 -1       503 0.00000E+00
 -1       505 0.00000E+00
 -1       506 0.00000E+00
 -1       508 0.00000E+00
 -1       517 0.00000E+00
 -1       519 0.00000E+00
 -1       520 0.00000E+00
 -1       522 0.00000E+00
 -1       531 0.00000E+00
 -1       533 0.00000E+00
 -1       534 0.00000E+00
 -1       536 0.00000E+00
 -1       545 0.00000E+00
 -1       547 0.00000E+00
 -1       548 0.00000E+00
 -1       550 0.00000E+00
 -1       559 0.00000E+00
 -1       561 0.00000E+00
 -1       562 0.00000E+00
 -1       564 0.00000E+00
 -1       573 0.00000E+00
 -1       575 0.00000E+00
 -1       576 0.00000E+00
 -1       578 0.00000E+00
 -1       587 0.00000E+00
 -1       589 0.00000E+00
 -1       590 0.00000E+00
 -1       592 0.00000E+00
 -1       601 0.00000E+00
 -1       603 0.00000E+00
 -1       604 0.00000E+00
 -1       606 0.00000E+00
 -1       615 0.00000E+00
 -1       617 0.00000E+00
 -1       618 0.00000E+00
 -1       620 0.00000E+00
 -1       629 0.00000E+00
 -1       631 0.00000E+00
 -1       632 0.00000E+00
 -1       634 0.00000E+00
 -1       643 0.00000E+00
 -1       645 0.00000E+00
 -1       646 0.00000E+00
 -1       648 0.00000E+00
 -1       657 0.00000E+00
 -1       659 0.00000E+00
 -1       660 0.00000E+00
 -1       662 0.00000E+00
 -1       671 0.00000E+00
 -1       673 0.00000E+00
 -1       674 0.00000E+00
 -1       676 0.00000E+00
 -1       685 0.00000E+00
 -1       687 0.00000E+00
 -1       688 0.00000E+00
 -1       690 0.00000E+00
 -1       699 0.00000E+00
 -1       701 0.00000E+00
 -1       702 0.00000E+00
 -1       704 0.00000E+00
 -1       713 0.00000E+00
 -1       715 0.00000E+00
 -1       716 0.00000E+00
 -1       718 0.00000E+00
 -1       727 0.00000E+00
 -1       729 0.00000E+00
 -1       730 0.00000E+00
 -1       732 0.00000E+00
 -1       741 0.00000E+00
 -1       743 0.00000E+00
 -1       744 0.00000E+00
 -1       746 0.00000E+00
 -1       755 0.00000E+00
 -1       757 0.00000E+00
 -1       758 0.00000E+00
 -1       760 0.00000E+00
 -1       769 0.00000E+00
 -1       771 0.00000E+00
 -1       772 0.00000E+00
 -1       774 0.00000E+00
 -1       783 0.00000E+00
 -1       785 0.00000E+00
 -1       786 0.00000E+00
 -1       788 0.00000E+00
 -1       797 0.00000E+00
 -1       799 0.00000E+00
 -1       800 0.00000E+00
 -1       802 0.00000E+00
 -1       811 0.00000E+00
 -1       813 0.00000E+00
 -1       814 0.00000E+00
 -1       816 0.00000E+00
 -1       825 0.00000E+00
 -1       827 0.00000E+00
 -1       828 0.00000E+00
 -1       830 0.00000E+00
 -1       839 0.00000E+00
 -1       841 0.00000E+00
 -1       842 0.00000E+00
 -1       844 0.00000E+00
 -1       853 0.00000E+00
 -1       855 0.00000E+00
 -1       856 0.00000E+00
 -1       858 0.00000E+00
 -1       859 0.00000E+00
 -1       861 0.00000E+00
 -1       862 0.00000E+00
 -1       864 0.00000E+00
 -1       865 0.00000E+00
 -1       867 0.00000E+00
 -1       868 0.00000E+00
 -1       870 0.00000E+00
 -1       871 0.00000E+00
 -1       873 0.00000E+00
 -1       874 0.00000E+00
 -1       876 0.00000E+00
 -1       877 0.00000E+00
 -1       879 0.00000E+00
 -1       880 0.00000E+00
 -1       882 0.00000E+00
 -1       883 0.00000E+00
 -1       885 0.00000E+00
 -1       886 0.00000E+00
 -1       888 0.00000E+00
 -1       889 0.00000E+00
 -1       891 0.00000E+00
 -1       892 0.00000E+00
 -1       894 0.00000E+00
 -1       895 0.00000E+00
 -1       897 0.00000E+00
 -1       898 0.00000E+00
 -1       900 0.00000E+00
 -1       901 0.00000E+00
 -1       903 0.00000E+00
 -1       904 0.00000E+00
 -1       906 0.00000E+00
 -1       907 0.00000E+00
 -1       909 0.00000E+00
 -1       910 0.00000E+00
 -1       912 0.00000E+00
 -1       913 0.00000E+00
 -1       915 0.00000E+00
 -1       916 0.00000E+00
 -1       918 0.00000E+00
 -1       919 0.00000E+00
 -1       921 0.00000E+00
 -1       922 0.00000E+00
 -1       924 0.00000E+00
 -1       925 0.00000E+00
 -1       927 0.00000E+00
 -1       928 0.00000E+00
 -1       930 0.00000E+00
 -1       931 0.00000E+00
 -1       933 0.00000E+00
 -1       934 0.00000E+00
 -1       936 0.00000E+00
 -1       937 0.00000E+00
 -1       939 0.00000E+00
 -1       940 0.00000E+00
 -1       942 0.00000E+00
 -1       943 0.00000E+00
 -1       945 0.00000E+00
 -1       946 0.00000E+00
 -1       948 0.00000E+00
 -1       949 0.00000E+00
 -1       951 0.00000E+00
 -1       952 0.00000E+00
 -1       954 0.00000E+00
 -1       963 0.00000E+00
 -1       965 0.00000E+00
 -1       966 0.00000E+00
 -1       968 0.00000E+00
 -1       977 0.00000E+00
 -1       979 0.00000E+00
 -1       980 0.00000E+00
 -1       982 0.00000E+00
 -1       991 0.00000E+00
 -1       993 0.00000E+00
 -1       994 0.00000E+00
 -1       996 0.00000E+00
 -1      1005 0.00000E+00
 -1      1007 0.00000E+00
 -1      1008 0.00000E+00
 -1      1010 0.00000E+00
 -1      1019 0.00000E+00
 -1      1021 0.00000E+00
 -1      1022 0.00000E+00
 -1      1024 0.00000E+00
 -1      1033 0.00000E+00
 -1      1035 0.00000E+00
 -1      1036 0.00000E+00
 -1      1038 0.00000E+00
 -1      1047 0.00000E+00
 -1      1049 0.00000E+00
 -1      1050 0.00000E+00
 -1      1052 0.00000E+00
 -1      1061 0.00000E+00
 -1      1063 0.00000E+00
 -1      1064 0.00000E+00
 -1      1066 0.00000E+00
 -1      1075 0.00000E+00
 -1      1077 0.00000E+00
 -1      1078 0.00000E+00
 -1      1080 0.00000E+00
 -1      1089 0.00000E+00
 -1      1091 0.00000E+00
 -1      1092 0.00000E+00
 -1      1094 0.00000E+00
 -1      1103 0.00000E+00
 -1      1105 0.00000E+00
 -1      1106 0.00000E+00
 -1      1108 0.00000E+00
 -1      1117 0.00000E+00
 -1      1119 0.00000E+00
 -1      1120 0.00000E+00
 -1      1122 0.00000E+00
 -1      1131 0.00000E+00
 -1      1133 0.00000E+00
 -1      1134 0.00000E+00
 -1      1136 0.00000E+00
 -1      1145 0.00000E+00
 -1      1147 0.00000E+00
 -1      1148 0.00000E+00
 -1      1150 0.00000E+00
 -1      1159 0.00000E+00
 -1      1161 0.00000E+00
 -1      1162 0.00000E+00
 -1      1164 0.00000E+00
 -1      1173 0.00000E+00
 -1      1175 0.00000E+00
 -1      1176 0.00000E+00
 -1      1178 0.00000E+00
 -1      1187 0.00000E+00
 -1      1189 0.00000E+00
 -1      1190 0.00000E+00
 -1      1192 0.00000E+00
 -1      1201 0.00000E+00
 -1      1203 0.00000E+00
 -1      1204 0.00000E+00
 -1      1206 0.00000E+00
 -1      1215 0.00000E+00
 -1      1217 0.00000E+00
 -1      1218 0.00000E+00
 -1      1220 0.00000E+00
 -1      1229 0.00000E+00
 -1      1231 0.00000E+00
 -1      1232 0.00000E+00
 -1      1234 0.00000E+00
 -1      1243 0.00000E+00
 -1      1245 0.00000E+00
 -1      1246 0.00000E+00
 -1      1248 0.00000E+00
 -1      1257 0.00000E+00
 -1      1259 0.00000E+00
 -1      1260 0.00000E+00
 -1      1262 0.00000E+00
 -1      1271 0.00000E+00
 -1      1273 0.00000E+00
 -1      1274 0.00000E+00
 -1      1276 0.00000E+00
 -1      1285 0.00000E+00
 -1      1287 0.00000E+00
 -1      1288 0.00000E+00
 -1      1290 0.00000E+00
 -1      1299 0.00000E+00
 -1      1301 0.00000E+00
 -1      1302 0.00000E+00
 -1      1304 0.00000E+00
 -1      1313 0.00000E+00
 -1      1315 0.00000E+00
 -1      1316 0.00000E+00
 -1      1318 0.00000E+00
 -1      1327 0.00000E+00
 -1      1329 0.00000E+00
 -1      1330 0.00000E+00
 -1      1332 0.00000E+00
 -1      1341 0.00000E+00
 -1      1343 0.00000E+00
 -1      1344 0.00000E+00
 -1      1346 0.00000E+00
 -1      1355 0.00000E+00
 -1      1357 0.00000E+00
 -1      1358 0.00000E+00
 -1      1360 0.00000E+00
 -1      1361 0.00000E+00
 -1      1363 0.00000E+00
 -1      1364 0.00000E+00
 -1      1366 0.00000E+00
 -1      1367 0.00000E+00
 -1      1369 0.00000E+00
 -1      1370 0.00000E+00
 -1      1372 0.00000E+00
 -1      1373 0.00000E+00
 -1      1375 0.00000E+00
 -1      1376 0.00000E+00
 -1      1378 0.00000E+00
 -1      1379 0.00000E+00
 -1      1381 0.00000E+00
 -1      1382 0.00000E+00
 -1      1384 0.00000E+00
 -1      1385 0.00000E+00
 -1      1387 0.00000E+00
 -1      1388 0.00000E+00
 -1      1390 0.00000E+00
 -1      1391 0.00000E+00
 -1      1393 0.00000E+00
 -1      1394 0.00000E+00
 -1      1396 0.00000E+00
 -1      1397 0.00000E+00
 -1      1399 0.00000E+00
 -1      1400 0.00000E+00
 -1      1402 0.00000E+00
 -1      1403 0.00000E+00
 -1      1405 0.00000E+00
 -1      1406 0.00000E+00
 -1      1408 0.00000E+00
 -1      1409 0.00000E+00
 -1      1411 0.00000E+00
 -1      1412 0.00000E+00
 -1      1414 0.00000E+00
 -1      1415 0.00000E+00
 -1      1417 0.00000E+00
 -1      1418 0.00000E+00
 -1      1420 0.00000E+00
 -1      1421 0.00000E+00
 -1      1423 0.00000E+00
 -1      1424 0.00000E+00
 -1      1426 0.00000E+00
 -1      1427 0.00000E+00
 -1      1429 0.00000E+00
 -1      1430 0.00000E+00
 -1      1432 0.00000E+00
 -1      1433 0.00000E+00
 -1      1435 0.00000E+00
 -1      1436 0.00000E+00
 -1      1438 0.00000E+00
 -1      1439 0.00000E+00
 -1      1441 0.00000E+00
 -1      1442 0.00000E+00
 -1      1444 0.00000E+00
 -1      1445 0.00000E+00
 -1      1447 0.00000E+00
 -1      1448 0.00000E+00
 -1      1450 0.00000E+00
 -1      1451 0.00000E+00
 -1      1453 0.00000E+00
 -1      1454 0.00000E+00
 -1      1456 0.00000E+00
 -1      1457 0.00000E+00
 -1      1459 0.00000E+00
 -1      1460 0.00000E+00
 -1      1462 0.00000E+00
 -1      1463 0.00000E+00
 -1      1465 0.00000E+00
 -1      1466 0.00000E+00
 -1      1468 0.00000E+00
 -1      1469 0.00000E+00
 -1      1471 0.00000E+00
 -1      1472 0.00000E+00
 -1      1474 0.00000E+00
 -1      1475 0.00000E+00
 -1      1477 0.00000E+00
 -1      1478 0.00000E+00
 -1      1480 0.00000E+00
 -1      1481 0.00000E+00
 -1      1483 0.00000E+00
 -1      1484 0.00000E+00
 -1      1486 0.00000E+00
 -1      1487 0.00000E+00
 -1      1489 0.00000E+00
 -1      1490 0.00000E+00
 -1      1492 0.00000E+00
 -1      1493 0.00000E+00
 -1      1495 0.00000E+00
 -1      1496 0.00000E+00
 -1      1498 0.00000E+00
 -1      1499 0.00000E+00
 -1      1501 0.00000E+00
 -1      1502 0.00000E+00
 -1      1504 0.00000E+00
 -1      1505 0.00000E+00
 -1      1507 0.00000E+00
 -1      1508 0.00000E+00
 -1      1510 0.00000E+00
 -1      1511 0.00000E+00
 -1      1513 0.00000E+00
 -1      1514 0.00000E+00
 -1      1516 0.00000E+00
 -1      1517 0.00000E+00
 -1      1519 0.00000E+00
 -1      1520 0.00000E+00
 -1      1522 0.00000E+00
 -1      1523 0.00000E+00
 -1      1525 0.00000E+00
 -1      1526 0.00000E+00
 -1      1528 0.00000E+00
 -1      1529 0.00000E+00
 -1      1531 0.00000E+00
 -1      1532 0.00000E+00
 -1      1534 0.00000E+00
 -1      1535 0.00000E+00
 -1      1537 0.00000E+00
 -1      1538 0.00000E+00
 -1      1540 0.00000E+00
 -1      1541 0.00000E+00
 -1      1543 0.00000E+00
 -1      1544 0.00000E+00
 -1      1546 0.00000E+00
 -1      1547 0.00000E+00
 -1      1549 0.00000E+00
 -1      1550 0.00000E+00
 -1      1552 0.00000E+00
 -1      1553 0.00000E+00
 -1      1555 0.00000E+00
 -1      1556 0.00000E+00
 -1      1558 0.00000E+00
 -1      1559 0.00000E+00
 -1      1561 0.00000E+00
 -1      1562 0.00000E+00
 -1      1564 0.00000E+00
 -1      1565 0.00000E+00
 -1      1567 0.00000E+00
 -1      1568 0.00000E+00
 -1      1570 0.00000E+00
 -1      1571 0.00000E+00
 -1      1573 0.00000E+00
 -1      1574 0.00000E+00
 -1      1576 0.00000E+00
 -1      1577 0.00000E+00
 -1      1579 0.00000E+00
 -1      1580 0.00000E+00
 -1      1582 0.00000E+00
 -1      1583 0.00000E+00
 -1      1585 0.00000E+00
 -1      1586 0.00000E+00
 -1      1588 0.00000E+00
 -1      1589 0.00000E+00
 -1      1591 0.00000E+00
 -1      1592 0.00000E+00
 -1      1594 0.00000E+00
 -1      1595 0.00000E+00
 -1      1597 0.00000E+00
 -1      1598 0.00000E+00
 -1      1600 0.00000E+00
 -1      1601 0.00000E+00
 -1      1603 0.00000E+00
 -1      1604 0.00000E+00
 -1      1606 0.00000E+00
 -1      1607 0.00000E+00
 -1      1609 0.00000E+00
 -1      1610 0.00000E+00
 -1      1612 0.00000E+00
 -1      1613 0.00000E+00
 -1      1615 0.00000E+00
 -1      1616 0.00000E+00
 -1      1618 0.00000E+00
 -1      1619 0.00000E+00
 -1      1621 0.00000E+00
 -1      1622 0.00000E+00
 -1      1624 0.00000E+00
 -1      1625 0.00000E+00
 -1      1627 0.00000E+00
 -1      1628 0.00000E+00
 -1      1630 0.00000E+00
 -1      1631 0.00000E+00
 -1      1633 0.00000E+00
 -1      1634 0.00000E+00
 -1      1636 0.00000E+00
 -1      1637 0.00000E+00
 -1      1639 0.00000E+00
 -1      1640 0.00000E+00
 -1      1642 0.00000E+00
 -1      1643 0.00000E+00
 -1      1645 0.00000E+00
 -1      1646 0.00000E+00
 -1      1648 0.00000E+00
 -1      1649 0.00000E+00
 -1      1651 0.00000E+00
 -1      1652 0.00000E+00
 -1      1654 0.00000E+00
 -1      1655 0.00000E+00
 -1      1657 0.00000E+00
 -1      1658 0.00000E+00
 -1      1660 0.00000E+00
 -1      1661 0.00000E+00
 -1      1663 0.00000E+00
 -1      1664 0.00000E+00
 -1      1666 0.00000E+00
 -1      1667 0.00000E+00
 -1      1669 0.00000E+00
 -1      1670 0.00000E+00
 -1      1672 0.00000E+00
 -1      1673 0.00000E+00
 -1      1675 0.00000E+00
 -1      1676 0.00000E+00
 -1      1678 0.00000E+00
 -1      1679 0.00000E+00
 -1      1681 0.00000E+00
 -1      1682 0.00000E+00
 -1      1684 0.00000E+00
 -1      1685 0.00000E+00
 -1      1687 0.00000E+00
 -1      1688 0.00000E+00
 -1      1690 0.00000E+00
 -1      1691 0.00000E+00
 -1      1693 0.00000E+00
 -1      1694 0.00000E+00
 -1      1696 0.00000E+00
 -1      1697 0.00000E+00
 -1      1699 0.00000E+00
 -1      1700 0.00000E+00
 -1      1702 0.00000E+00
 -1      1703 0.00000E+00
 -1      1705 0.00000E+00
 -1      1706 0.00000E+00
 -1      1708 0.00000E+00
 -1      1709 0.00000E+00
 -1      1711 0.00000E+00
 -1      1712 0.00000E+00
 -1      1714 0.00000E+00
 -1      1715 0.00000E+00
 -1      1717 0.00000E+00
 -1      1718 0.00000E+00
 -1      1720 0.00000E+00
 -1      1721 0.00000E+00
 -1      1723 0.00000E+00
 -1      1724 0.00000E+00
 -1      1726 0.00000E+00
 -1      1727 0.00000E+00
 -1      1729 0.00000E+00
 -1      1730 0.00000E+00
 -1      1732 0.00000E+00
 -1      1733 0.00000E+00
 -1      1735 0.00000E+00
 -1      1736 0.00000E+00
 -1      1738 0.00000E+00
 -1      1739 0.00000E+00
 -1      1741 0.00000E+00
 -1      1742 0.00000E+00
 -1      1744 0.00000E+00
 -1      1745 0.00000E+00
 -1      1747 0.00000E+00
 -1      1748 0.00000E+00
 -1      1750 0.00000E+00
 -1      1751 0.00000E+00
 -1      1753 0.00000E+00
 -1      1754 0.00000E+00
 -1      1756 0.00000E+00
 -1      1757 0.00000E+00
 -1      1759 0.00000E+00
 -1      1760 0.00000E+00
 -1      1762 0.00000E+00
 -1      1763 0.00000E+00
 -1      1765 0.00000E+00
 -1      1766 0.00000E+00
 -1      1768 0.00000E+00
 -1      1769 0.00000E+00
 -1      1771 0.00000E+00
 -1      1772 0.00000E+00
 -1      1774 0.00000E+00
 -1      1775 0.00000E+00
 -1      1777 0.00000E+00
 -1      1778 0.00000E+00
 -1      1780 0.00000E+00
 -1      1781 0.00000E+00
 -1      1783 0.00000E+00
 -1      1784 0.00000E+00
 -1      1786 0.00000E+00
 -1      1787 0.00000E+00
 -1      1789 0.00000E+00
 -1      1790 0.00000E+00
 -1      1792 0.00000E+00
 -1      1793 0.00000E+00
 -1      1795 0.00000E+00
 -1      1796 0.00000E+00
 -1      1798 0.00000E+00
 -3
 9999
